
****************************************************************
****************************************************************
**                                                            **
**                                                            **
**        CCC     OO      SSS    M    M     OO      SSS       **
**       C       O  O    S       MM  MM    O  O    S          **
**       C       O  O     SS     M MM M    O  O     SS        **
**       C       O  O       S    M    M    O  O       S       **
**        CCC     OO     SSS     M    M     OO     SSS        **
**                                                            **
**                                                            **
**                Fatigue(FSTAR)                              **
**           Distributed By: SolidWorks Corporation           **
**               12121 Wilshire Blvd. Suite 700               **
**               Los Angeles, California  90025               **
**               Telephone Number (310)207-2800               **
**         Copyright 1988-2016 SolidWorks Corporation         **
**                                                            **
****************************************************************
****************************************************************

Licensed to:                



--------------------------------------------------------------------------
COSMOS                   FATIGUE MODULE              7/23/2023   23: 4:55
--------------------------------------------------------------------------


 Title :                                                                       





F A T I G U E   P R O P E R T I E S :


Load Amplitude Type . . . . . . . . . . . . . . . . =       0
       EQ. 0, Constant Amplitude
       EQ. 1, Variable Amplitude

Activated Location  . . . . . . . . . . . . . . . . =       0
       EQ. 0, Whole Model
       EQ. 1, Surface Only


Shell Surface . . . . . . . . . . . . . . . . . . . =       1
       EQ. 1, Top
       EQ. 2, Bottom


Shell Layer . . . . . . . . . . . . . . . . . . . . =       0


Event Interaction . . . . . . . . . . . . . . . . . =       0
       EQ. 0, Random
       EQ. 1, No interaction


Alternating Stress  . . . . . . . . . . . . . . . . =       0
       EQ. 0, Intensity
       EQ. 1, Von mises
       EQ. 2, Max. Principal


Mean Stress Correction  . . . . . . . . . . . . . . =       0
       EQ. 0, No Correction
       EQ. 1, Soderberg
       EQ. 2, Goodman
       EQ. 3, Gerber


Fatigue Strength Reduction Factor (Kt)  . . . . . . =  1.0000


Infinite Life . . . . . . . . . . . . . . . . . . . =       0
       EQ. 0, Not Defined
       EQ. 1, Defined




E V E N T   P A R A M E T E R S:

          No. of    Associated      Load Case(s)/      Scale
  Event   Cycles    Loading(s)      Time Step(s)       factor
  -----   ------    ----------       -----------       ------
    1  0.400E+10        1                1             1.00    
                        2                1            0.900    
  
  




         S - N   C U R V E  #     1

(Material set #    1; Stress ratio:-1.00)
          (Log-Log interplolation)


  POINT No.   No. of Cycles     Alt. Stress
  ---------   -------------     -----------
     1         100.             0.178E+10
     2         200.             0.137E+10
     3         500.             0.101E+10
     4        0.100E+04         0.812E+09
     5        0.200E+04         0.662E+09
     6        0.500E+04         0.518E+09
     7        0.100E+05         0.436E+09
     8        0.200E+05         0.378E+09
     9        0.500E+05         0.316E+09
    10        0.100E+06         0.278E+09
    11        0.200E+06         0.245E+09
    12        0.500E+06         0.211E+09
    13        0.100E+07         0.193E+09



F A T I G U E   C A L C U L A T I O N   R E S U L T S:


              (all-nodes option)   

                        cumulative fatigue
        node                usage factor 
       ------           ------------------
          1                4000.00    
          2                4000.00    
          3                4000.00    
          4                4000.00    
          5                4000.00    
          6                4000.00    
          7                4000.00    
          8                4000.00    
          9                4000.00    
         10                4000.00    
         11                4000.00    
         12                4000.00    
         13                4000.00    
         14                4000.00    
         15                4000.00    
         16                4000.00    
         17                4000.00    
         18                4000.00    
         19                4000.00    
         20                4000.00    
         21                4000.00    
         22                4000.00    
         23                4000.00    
         24                4000.00    
         25                4000.00    
         26                4000.00    
         27                4000.00    
         28                4000.00    
         29                4000.00    
         30                4000.00    
         31                4000.00    
         32                4000.00    
         33                4000.00    
         34                4000.00    
         35                4000.00    
         36                4000.00    
         37                4000.00    
         38                4000.00    
         39                4000.00    
         40                4000.00    
         41                4000.00    
         42                4000.00    
         43                4000.00    
         44                4000.00    
         45                4000.00    
         46                4000.00    
         47                4000.00    
         48                4000.00    
         49                4000.00    
         50                4000.00    
         51                4000.00    
         52                4000.00    
         53                4000.00    
         54                4000.00    
         55                4000.00    
         56                4000.00    
         57                4000.00    
         58                4000.00    
         59                4000.00    
         60                4000.00    
         61                4000.00    
         62                4000.00    
         63                4000.00    
         64                4000.00    
         65                4000.00    
         66                4000.00    
         67                4000.00    
         68                4000.00    
         69                4000.00    
         70                4000.00    
         71                4000.00    
         72                4000.00    
         73                4000.00    
         74                4000.00    
         75                4000.00    
         76                4000.00    
         77                4000.00    
         78                4000.00    
         79                4000.00    
         80                4000.00    
         81                4000.00    
         82                4000.00    
         83                4000.00    
         84                4000.00    
         85                4000.00    
         86                4000.00    
         87                4000.00    
         88                4000.00    
         89                4000.00    
         90                4000.00    
         91                4000.00    
         92                4000.00    
         93                4000.00    
         94                4000.00    
         95                4000.00    
         96                4000.00    
         97                4000.00    
         98                4000.00    
         99                4000.00    
        100                4000.00    
        101                4000.00    
        102                4000.00    
        103                4000.00    
        104                4000.00    
        105                4000.00    
        106                4000.00    
        107                4000.00    
        108                4000.00    
        109                4000.00    
        110                4000.00    
        111                4000.00    
        112                4000.00    
        113                4000.00    
        114                4000.00    
        115                4000.00    
        116                4000.00    
        117                4000.00    
        118                4000.00    
        119                4000.00    
        120                4000.00    
        121                4000.00    
        122                4000.00    
        123                4000.00    
        124                4000.00    
        125                4000.00    
        126                4000.00    
        127                4000.00    
        128                4000.00    
        129                4000.00    
        130                4000.00    
        131                4000.00    
        132                4000.00    
        133                4000.00    
        134                4000.00    
        135                4000.00    
        136                4000.00    
        137                4000.00    
        138                4000.00    
        139                4000.00    
        140                4000.00    
        141                4000.00    
        142                4000.00    
        143                4000.00    
        144                4000.00    
        145                4000.00    
        146                4000.00    
        147                4000.00    
        148                4000.00    
        149                4000.00    
        150                4000.00    
        151                4000.00    
        152                4000.00    
        153                4000.00    
        154                4000.00    
        155                4000.00    
        156                4000.00    
        157                4000.00    
        158                4000.00    
        159                4000.00    
        160                4000.00    
        161                4000.00    
        162                4000.00    
        163                4000.00    
        164                4000.00    
        165                4000.00    
        166                4000.00    
        167                4000.00    
        168                4000.00    
        169                4000.00    
        170                4000.00    
        171                4000.00    
        172                4000.00    
        173                4000.00    
        174                4000.00    
        175                4000.00    
        176                4000.00    
        177                4000.00    
        178                4000.00    
        179                4000.00    
        180                4000.00    
        181                4000.00    
        182                4000.00    
        183                4000.00    
        184                4000.00    
        185                4000.00    
        186                4000.00    
        187                4000.00    
        188                4000.00    
        189                4000.00    
        190                4000.00    
        191                4000.00    
        192                4000.00    
        193                4000.00    
        194                4000.00    
        195                4000.00    
        196                4000.00    
        197                4000.00    
        198                4000.00    
        199                4000.00    
        200                4000.00    
        201                4000.00    
        202                4000.00    
        203                4000.00    
        204                4000.00    
        205                4000.00    
        206                4000.00    
        207                4000.00    
        208                4000.00    
        209                4000.00    
        210                4000.00    
        211                4000.00    
        212                4000.00    
        213                4000.00    
        214                4000.00    
        215                4000.00    
        216                4000.00    
        217                4000.00    
        218                4000.00    
        219                4000.00    
        220                4000.00    
        221                4000.00    
        222                4000.00    
        223                4000.00    
        224                4000.00    
        225                4000.00    
        226                4000.00    
        227                4000.00    
        228                4000.00    
        229                4000.00    
        230                4000.00    
        231                4000.00    
        232                4000.00    
        233                4000.00    
        234                4000.00    
        235                4000.00    
        236                4000.00    
        237                4000.00    
        238                4000.00    
        239                4000.00    
        240                4000.00    
        241                4000.00    
        242                4000.00    
        243                4000.00    
        244                4000.00    
        245                4000.00    
        246                4000.00    
        247                4000.00    
        248                4000.00    
        249                4000.00    
        250                4000.00    
        251                4000.00    
        252                4000.00    
        253                4000.00    
        254                4000.00    
        255                4000.00    
        256                4000.00    
        257                4000.00    
        258                4000.00    
        259                4000.00    
        260                4000.00    
        261                4000.00    
        262                4000.00    
        263                4000.00    
        264                4000.00    
        265                4000.00    
        266                4000.00    
        267                4000.00    
        268                4000.00    
        269                4000.00    
        270                4000.00    
        271                4000.00    
        272                4000.00    
        273                4000.00    
        274                4000.00    
        275                4000.00    
        276                4000.00    
        277                4000.00    
        278                4000.00    
        279                4000.00    
        280                4000.00    
        281                4000.00    
        282                4000.00    
        283                4000.00    
        284                4000.00    
        285                4000.00    
        286                4000.00    
        287                4000.00    
        288                4000.00    
        289                4000.00    
        290                4000.00    
        291                4000.00    
        292                4000.00    
        293                4000.00    
        294                4000.00    
        295                4000.00    
        296                4000.00    
        297                4000.00    
        298                4000.00    
        299                4000.00    
        300                4000.00    
        301                4000.00    
        302                4000.00    
        303                4000.00    
        304                4000.00    
        305                4000.00    
        306                4000.00    
        307                4000.00    
        308                4000.00    
        309                4000.00    
        310                4000.00    
        311                4000.00    
        312                4000.00    
        313                4000.00    
        314                4000.00    
        315                4000.00    
        316                4000.00    
        317                4000.00    
        318                4000.00    
        319                4000.00    
        320                4000.00    
        321                4000.00    
        322                4000.00    
        323                4000.00    
        324                4000.00    
        325                4000.00    
        326                4000.00    
        327                4000.00    
        328                4000.00    
        329                4000.00    
        330                4000.00    
        331                4000.00    
        332                4000.00    
        333                4000.00    
        334                4000.00    
        335                4000.00    
        336                4000.00    
        337                4000.00    
        338                4000.00    
        339                4000.00    
        340                4000.00    
        341                4000.00    
        342                4000.00    
        343                4000.00    
        344                4000.00    
        345                4000.00    
        346                4000.00    
        347                4000.00    
        348                4000.00    
        349                4000.00    
        350                4000.00    
        351                4000.00    
        352                4000.00    
        353                4000.00    
        354                4000.00    
        355                4000.00    
        356                4000.00    
        357                4000.00    
        358                4000.00    
        359                4000.00    
        360                4000.00    
        361                4000.00    
        362                4000.00    
        363                4000.00    
        364                4000.00    
        365                4000.00    
        366                4000.00    
        367                4000.00    
        368                4000.00    
        369                4000.00    
        370                4000.00    
        371                4000.00    
        372                4000.00    
        373                4000.00    
        374                4000.00    
        375                4000.00    
        376                4000.00    
        377                4000.00    
        378                4000.00    
        379                4000.00    
        380                4000.00    
        381                4000.00    
        382                4000.00    
        383                4000.00    
        384                4000.00    
        385                4000.00    
        386                4000.00    
        387                4000.00    
        388                4000.00    
        389                4000.00    
        390                4000.00    
        391                4000.00    
        392                4000.00    
        393                4000.00    
        394                4000.00    
        395                4000.00    
        396                4000.00    
        397                4000.00    
        398                4000.00    
        399                4000.00    
        400                4000.00    
        401                4000.00    
        402                4000.00    
        403                4000.00    
        404                4000.00    
        405                4000.00    
        406                4000.00    
        407                4000.00    
        408                4000.00    
        409                4000.00    
        410                4000.00    
        411                4000.00    
        412                4000.00    
        413                4000.00    
        414                4000.00    
        415                4000.00    
        416                4000.00    
        417                4000.00    
        418                4000.00    
        419                4000.00    
        420                4000.00    
        421                4000.00    
        422                4000.00    
        423                4000.00    
        424                4000.00    
        425                4000.00    
        426                4000.00    
        427                4000.00    
        428                4000.00    
        429                4000.00    
        430                4000.00    
        431                4000.00    
        432                4000.00    
        433                4000.00    
        434                4000.00    
        435                4000.00    
        436                4000.00    
        437                4000.00    
        438                4000.00    
        439                4000.00    
        440                4000.00    
        441                4000.00    
        442                4000.00    
        443                4000.00    
        444                4000.00    
        445                4000.00    
        446                4000.00    
        447                4000.00    
        448                4000.00    
        449                4000.00    
        450                4000.00    
        451                4000.00    
        452                4000.00    
        453                4000.00    
        454                4000.00    
        455                4000.00    
        456                4000.00    
        457                4000.00    
        458                4000.00    
        459                4000.00    
        460                4000.00    
        461                4000.00    
        462                4000.00    
        463                4000.00    
        464                4000.00    
        465                4000.00    
        466                4000.00    
        467                4000.00    
        468                4000.00    
        469                4000.00    
        470                4000.00    
        471                4000.00    
        472                4000.00    
        473                4000.00    
        474                4000.00    
        475                4000.00    
        476                4000.00    
        477                4000.00    
        478                4000.00    
        479                4000.00    
        480                4000.00    
        481                4000.00    
        482                4000.00    
        483                4000.00    
        484                4000.00    
        485                4000.00    
        486                4000.00    
        487                4000.00    
        488                4000.00    
        489                4000.00    
        490                4000.00    
        491                4000.00    
        492                4000.00    
        493                4000.00    
        494                4000.00    
        495                4000.00    
        496                4000.00    
        497                4000.00    
        498                4000.00    
        499                4000.00    
        500                4000.00    
        501                4000.00    
        502                4000.00    
        503                4000.00    
        504                4000.00    
        505                4000.00    
        506                4000.00    
        507                4000.00    
        508                4000.00    
        509                4000.00    
        510                4000.00    
        511                4000.00    
        512                4000.00    
        513                4000.00    
        514                4000.00    
        515                4000.00    
        516                4000.00    
        517                4000.00    
        518                4000.00    
        519                4000.00    
        520                4000.00    
        521                4000.00    
        522                4000.00    
        523                4000.00    
        524                4000.00    
        525                4000.00    
        526                4000.00    
        527                4000.00    
        528                4000.00    
        529                4000.00    
        530                4000.00    
        531                4000.00    
        532                4000.00    
        533                4000.00    
        534                4000.00    
        535                4000.00    
        536                4000.00    
        537                4000.00    
        538                4000.00    
        539                4000.00    
        540                4000.00    
        541                4000.00    
        542                4000.00    
        543                4000.00    
        544                4000.00    
        545                4000.00    
        546                4000.00    
        547                4000.00    
        548                4000.00    
        549                4000.00    
        550                4000.00    
        551                4000.00    
        552                4000.00    
        553                4000.00    
        554                4000.00    
        555                4000.00    
        556                4000.00    
        557                4000.00    
        558                4000.00    
        559                4000.00    
        560                4000.00    
        561                4000.00    
        562                4000.00    
        563                4000.00    
        564                4000.00    
        565                4000.00    
        566                4000.00    
        567                4000.00    
        568                4000.00    
        569                4000.00    
        570                4000.00    
        571                4000.00    
        572                4000.00    
        573                4000.00    
        574                4000.00    
        575                4000.00    
        576                4000.00    
        577                4000.00    
        578                4000.00    
        579                4000.00    
        580                4000.00    
        581                4000.00    
        582                4000.00    
        583                4000.00    
        584                4000.00    
        585                4000.00    
        586                4000.00    
        587                4000.00    
        588                4000.00    
        589                4000.00    
        590                4000.00    
        591                4000.00    
        592                4000.00    
        593                4000.00    
        594                4000.00    
        595                4000.00    
        596                4000.00    
        597                4000.00    
        598                4000.00    
        599                4000.00    
        600                4000.00    
        601                4000.00    
        602                4000.00    
        603                4000.00    
        604                4000.00    
        605                4000.00    
        606                4000.00    
        607                4000.00    
        608                4000.00    
        609                4000.00    
        610                4000.00    
        611                4000.00    
        612                4000.00    
        613                4000.00    
        614                4000.00    
        615                4000.00    
        616                4000.00    
        617                4000.00    
        618                4000.00    
        619                4000.00    
        620                4000.00    
        621                4000.00    
        622                4000.00    
        623                4000.00    
        624                4000.00    
        625                4000.00    
        626                4000.00    
        627                4000.00    
        628                4000.00    
        629                4000.00    
        630                4000.00    
        631                4000.00    
        632                4000.00    
        633                4000.00    
        634                4000.00    
        635                4000.00    
        636                4000.00    
        637                4000.00    
        638                4000.00    
        639                4000.00    
        640                4000.00    
        641                4000.00    
        642                4000.00    
        643                4000.00    
        644                4000.00    
        645                4000.00    
        646                4000.00    
        647                4000.00    
        648                4000.00    
        649                4000.00    
        650                4000.00    
        651                4000.00    
        652                4000.00    
        653                4000.00    
        654                4000.00    
        655                4000.00    
        656                4000.00    
        657                4000.00    
        658                4000.00    
        659                4000.00    
        660                4000.00    
        661                4000.00    
        662                4000.00    
        663                4000.00    
        664                4000.00    
        665                4000.00    
        666                4000.00    
        667                4000.00    
        668                4000.00    
        669                4000.00    
        670                4000.00    
        671                4000.00    
        672                4000.00    
        673                4000.00    
        674                4000.00    
        675                4000.00    
        676                4000.00    
        677                4000.00    
        678                4000.00    
        679                4000.00    
        680                4000.00    
        681                4000.00    
        682                4000.00    
        683                4000.00    
        684                4000.00    
        685                4000.00    
        686                4000.00    
        687                4000.00    
        688                4000.00    
        689                4000.00    
        690                4000.00    
        691                4000.00    
        692                4000.00    
        693                4000.00    
        694                4000.00    
        695                4000.00    
        696                4000.00    
        697                4000.00    
        698                4000.00    
        699                4000.00    
        700                4000.00    
        701                4000.00    
        702                4000.00    
        703                4000.00    
        704                4000.00    
        705                4000.00    
        706                4000.00    
        707                4000.00    
        708                4000.00    
        709                4000.00    
        710                4000.00    
        711                4000.00    
        712                4000.00    
        713                4000.00    
        714                4000.00    
        715                4000.00    
        716                4000.00    
        717                4000.00    
        718                4000.00    
        719                4000.00    
        720                4000.00    
        721                4000.00    
        722                4000.00    
        723                4000.00    
        724                4000.00    
        725                4000.00    
        726                4000.00    
        727                4000.00    
        728                4000.00    
        729                4000.00    
        730                4000.00    
        731                4000.00    
        732                4000.00    
        733                4000.00    
        734                4000.00    
        735                4000.00    
        736                4000.00    
        737                4000.00    
        738                4000.00    
        739                4000.00    
        740                4000.00    
        741                4000.00    
        742                4000.00    
        743                4000.00    
        744                4000.00    
        745                4000.00    
        746                4000.00    
        747                4000.00    
        748                4000.00    
        749                4000.00    
        750                4000.00    
        751                4000.00    
        752                4000.00    
        753                4000.00    
        754                4000.00    
        755                4000.00    
        756                4000.00    
        757                4000.00    
        758                4000.00    
        759                4000.00    
        760                4000.00    
        761                4000.00    
        762                4000.00    
        763                4000.00    
        764                4000.00    
        765                4000.00    
        766                4000.00    
        767                4000.00    
        768                4000.00    
        769                4000.00    
        770                4000.00    
        771                4000.00    
        772                4000.00    
        773                4000.00    
        774                4000.00    
        775                4000.00    
        776                4000.00    
        777                4000.00    
        778                4000.00    
        779                4000.00    
        780                4000.00    
        781                4000.00    
        782                4000.00    
        783                4000.00    
        784                4000.00    
        785                4000.00    
        786                4000.00    
        787                4000.00    
        788                4000.00    
        789                4000.00    
        790                4000.00    
        791                4000.00    
        792                4000.00    
        793                4000.00    
        794                4000.00    
        795                4000.00    
        796                4000.00    
        797                4000.00    
        798                4000.00    
        799                4000.00    
        800                4000.00    
        801                4000.00    
        802                4000.00    
        803                4000.00    
        804                4000.00    
        805                4000.00    
        806                4000.00    
        807                4000.00    
        808                4000.00    
        809                4000.00    
        810                4000.00    
        811                4000.00    
        812                4000.00    
        813                4000.00    
        814                4000.00    
        815                4000.00    
        816                4000.00    
        817                4000.00    
        818                4000.00    
        819                4000.00    
        820                4000.00    
        821                4000.00    
        822                4000.00    
        823                4000.00    
        824                4000.00    
        825                4000.00    
        826                4000.00    
        827                4000.00    
        828                4000.00    
        829                4000.00    
        830                4000.00    
        831                4000.00    
        832                4000.00    
        833                4000.00    
        834                4000.00    
        835                4000.00    
        836                4000.00    
        837                4000.00    
        838                4000.00    
        839                4000.00    
        840                4000.00    
        841                4000.00    
        842                4000.00    
        843                4000.00    
        844                4000.00    
        845                4000.00    
        846                4000.00    
        847                4000.00    
        848                4000.00    
        849                4000.00    
        850                4000.00    
        851                4000.00    
        852                4000.00    
        853                4000.00    
        854                4000.00    
        855                4000.00    
        856                4000.00    
        857                4000.00    
        858                4000.00    
        859                4000.00    
        860                4000.00    
        861                4000.00    
        862                4000.00    
        863                4000.00    
        864                4000.00    
        865                4000.00    
        866                4000.00    
        867                4000.00    
        868                4000.00    
        869                4000.00    
        870                4000.00    
        871                4000.00    
        872                4000.00    
        873                4000.00    
        874                4000.00    
        875                4000.00    
        876                4000.00    
        877                4000.00    
        878                4000.00    
        879                4000.00    
        880                4000.00    
        881                4000.00    
        882                4000.00    
        883                4000.00    
        884                4000.00    
        885                4000.00    
        886                4000.00    
        887                4000.00    
        888                4000.00    
        889                4000.00    
        890                4000.00    
        891                4000.00    
        892                4000.00    
        893                4000.00    
        894                4000.00    
        895                4000.00    
        896                4000.00    
        897                4000.00    
        898                4000.00    
        899                4000.00    
        900                4000.00    
        901                4000.00    
        902                4000.00    
        903                4000.00    
        904                4000.00    
        905                4000.00    
        906                4000.00    
        907                4000.00    
        908                4000.00    
        909                4000.00    
        910                4000.00    
        911                4000.00    
        912                4000.00    
        913                4000.00    
        914                4000.00    
        915                4000.00    
        916                4000.00    
        917                4000.00    
        918                4000.00    
        919                4000.00    
        920                4000.00    
        921                4000.00    
        922                4000.00    
        923                4000.00    
        924                4000.00    
        925                4000.00    
        926                4000.00    
        927                4000.00    
        928                4000.00    
        929                4000.00    
        930                4000.00    
        931                4000.00    
        932                4000.00    
        933                4000.00    
        934                4000.00    
        935                4000.00    
        936                4000.00    
        937                4000.00    
        938                4000.00    
        939                4000.00    
        940                4000.00    
        941                4000.00    
        942                4000.00    
        943                4000.00    
        944                4000.00    
        945                4000.00    
        946                4000.00    
        947                4000.00    
        948                4000.00    
        949                4000.00    
        950                4000.00    
        951                4000.00    
        952                4000.00    
        953                4000.00    
        954                4000.00    
        955                4000.00    
        956                4000.00    
        957                4000.00    
        958                4000.00    
        959                4000.00    
        960                4000.00    
        961                4000.00    
        962                4000.00    
        963                4000.00    
        964                4000.00    
        965                4000.00    
        966                4000.00    
        967                4000.00    
        968                4000.00    
        969                4000.00    
        970                4000.00    
        971                4000.00    
        972                4000.00    
        973                4000.00    
        974                4000.00    
        975                4000.00    
        976                4000.00    
        977                4000.00    
        978                4000.00    
        979                4000.00    
        980                4000.00    
        981                4000.00    
        982                4000.00    
        983                4000.00    
        984                4000.00    
        985                4000.00    
        986                4000.00    
        987                4000.00    
        988                4000.00    
        989                4000.00    
        990                4000.00    
        991                4000.00    
        992                4000.00    
        993                4000.00    
        994                4000.00    
        995                4000.00    
        996                4000.00    
        997                4000.00    
        998                4000.00    
        999                4000.00    
       1000                4000.00    
       1001                4000.00    
       1002                4000.00    
       1003                4000.00    
       1004                4000.00    
       1005                4000.00    
       1006                4000.00    
       1007                4000.00    
       1008                4000.00    
       1009                4000.00    
       1010                4000.00    
       1011                4000.00    
       1012                4000.00    
       1013                4000.00    
       1014                4000.00    
       1015                4000.00    
       1016                4000.00    
       1017                4000.00    
       1018                4000.00    
       1019                4000.00    
       1020                4000.00    
       1021                4000.00    
       1022                4000.00    
       1023                4000.00    
       1024                4000.00    
       1025                4000.00    
       1026                4000.00    
       1027                4000.00    
       1028                4000.00    
       1029                4000.00    
       1030                4000.00    
       1031                4000.00    
       1032                4000.00    
       1033                4000.00    
       1034                4000.00    
       1035                4000.00    
       1036                4000.00    
       1037                4000.00    
       1038                4000.00    
       1039                4000.00    
       1040                4000.00    
       1041                4000.00    
       1042                4000.00    
       1043                4000.00    
       1044                4000.00    
       1045                4000.00    
       1046                4000.00    
       1047                4000.00    
       1048                4000.00    
       1049                4000.00    
       1050                4000.00    
       1051                4000.00    
       1052                4000.00    
       1053                4000.00    
       1054                4000.00    
       1055                4000.00    
       1056                4000.00    
       1057                4000.00    
       1058                4000.00    
       1059                4000.00    
       1060                4000.00    
       1061                4000.00    
       1062                4000.00    
       1063                4000.00    
       1064                4000.00    
       1065                4000.00    
       1066                4000.00    
       1067                4000.00    
       1068                4000.00    
       1069                4000.00    
       1070                4000.00    
       1071                4000.00    
       1072                4000.00    
       1073                4000.00    
       1074                4000.00    
       1075                4000.00    
       1076                4000.00    
       1077                4000.00    
       1078                4000.00    
       1079                4000.00    
       1080                4000.00    
       1081                4000.00    
       1082                4000.00    
       1083                4000.00    
       1084                4000.00    
       1085                4000.00    
       1086                4000.00    
       1087                4000.00    
       1088                4000.00    
       1089                4000.00    
       1090                4000.00    
       1091                4000.00    
       1092                4000.00    
       1093                4000.00    
       1094                4000.00    
       1095                4000.00    
       1096                4000.00    
       1097                4000.00    
       1098                4000.00    
       1099                4000.00    
       1100                4000.00    
       1101                4000.00    
       1102                4000.00    
       1103                4000.00    
       1104                4000.00    
       1105                4000.00    
       1106                4000.00    
       1107                4000.00    
       1108                4000.00    
       1109                4000.00    
       1110                4000.00    
       1111                4000.00    
       1112                4000.00    
       1113                4000.00    
       1114                4000.00    
       1115                4000.00    
       1116                4000.00    
       1117                4000.00    
       1118                4000.00    
       1119                4000.00    
       1120                4000.00    
       1121                4000.00    
       1122                4000.00    
       1123                4000.00    
       1124                4000.00    
       1125                4000.00    
       1126                4000.00    
       1127                4000.00    
       1128                4000.00    
       1129                4000.00    
       1130                4000.00    
       1131                4000.00    
       1132                4000.00    
       1133                4000.00    
       1134                4000.00    
       1135                4000.00    
       1136                4000.00    
       1137                4000.00    
       1138                4000.00    
       1139                4000.00    
       1140                4000.00    
       1141                4000.00    
       1142                4000.00    
       1143                4000.00    
       1144                4000.00    
       1145                4000.00    
       1146                4000.00    
       1147                4000.00    
       1148                4000.00    
       1149                4000.00    
       1150                4000.00    
       1151                4000.00    
       1152                4000.00    
       1153                4000.00    
       1154                4000.00    
       1155                4000.00    
       1156                4000.00    
       1157                4000.00    
       1158                4000.00    
       1159                4000.00    
       1160                4000.00    
       1161                4000.00    
       1162                4000.00    
       1163                4000.00    
       1164                4000.00    
       1165                4000.00    
       1166                4000.00    
       1167                4000.00    
       1168                4000.00    
       1169                4000.00    
       1170                4000.00    
       1171                4000.00    
       1172                4000.00    
       1173                4000.00    
       1174                4000.00    
       1175                4000.00    
       1176                4000.00    
       1177                4000.00    
       1178                4000.00    
       1179                4000.00    
       1180                4000.00    
       1181                4000.00    
       1182                4000.00    
       1183                4000.00    
       1184                4000.00    
       1185                4000.00    
       1186                4000.00    
       1187                4000.00    
       1188                4000.00    
       1189                4000.00    
       1190                4000.00    
       1191                4000.00    
       1192                4000.00    
       1193                4000.00    
       1194                4000.00    
       1195                4000.00    
       1196                4000.00    
       1197                4000.00    
       1198                4000.00    
       1199                4000.00    
       1200                4000.00    
       1201                4000.00    
       1202                4000.00    
       1203                4000.00    
       1204                4000.00    
       1205                4000.00    
       1206                4000.00    
       1207                4000.00    
       1208                4000.00    
       1209                4000.00    
       1210                4000.00    
       1211                4000.00    
       1212                4000.00    
       1213                4000.00    
       1214                4000.00    
       1215                4000.00    
       1216                4000.00    
       1217                4000.00    
       1218                4000.00    
       1219                4000.00    
       1220                4000.00    
       1221                4000.00    
       1222                4000.00    
       1223                4000.00    
       1224                4000.00    
       1225                4000.00    
       1226                4000.00    
       1227                4000.00    
       1228                4000.00    
       1229                4000.00    
       1230                4000.00    
       1231                4000.00    
       1232                4000.00    
       1233                4000.00    
       1234                4000.00    
       1235                4000.00    
       1236                4000.00    
       1237                4000.00    
       1238                4000.00    
       1239                4000.00    
       1240                4000.00    
       1241                4000.00    
       1242                4000.00    
       1243                4000.00    
       1244                4000.00    
       1245                4000.00    
       1246                4000.00    
       1247                4000.00    
       1248                4000.00    
       1249                4000.00    
       1250                4000.00    
       1251                4000.00    
       1252                4000.00    
       1253                4000.00    
       1254                4000.00    
       1255                4000.00    
       1256                4000.00    
       1257                4000.00    
       1258                4000.00    
       1259                4000.00    
       1260                4000.00    
       1261                4000.00    
       1262                4000.00    
       1263                4000.00    
       1264                4000.00    
       1265                4000.00    
       1266                4000.00    
       1267                4000.00    
       1268                4000.00    
       1269                4000.00    
       1270                4000.00    
       1271                4000.00    
       1272                4000.00    
       1273                4000.00    
       1274                4000.00    
       1275                4000.00    
       1276                4000.00    
       1277                4000.00    
       1278                4000.00    
       1279                4000.00    
       1280                4000.00    
       1281                4000.00    
       1282                4000.00    
       1283                4000.00    
       1284                4000.00    
       1285                4000.00    
       1286                4000.00    
       1287                4000.00    
       1288                4000.00    
       1289                4000.00    
       1290                4000.00    
       1291                4000.00    
       1292                4000.00    
       1293                4000.00    
       1294                4000.00    
       1295                4000.00    
       1296                4000.00    
       1297                4000.00    
       1298                4000.00    
       1299                4000.00    
       1300                4000.00    
       1301                4000.00    
       1302                4000.00    
       1303                4000.00    
       1304                4000.00    
       1305                4000.00    
       1306                4000.00    
       1307                4000.00    
       1308                4000.00    
       1309                4000.00    
       1310                4000.00    
       1311                4000.00    
       1312                4000.00    
       1313                4000.00    
       1314                4000.00    
       1315                4000.00    
       1316                4000.00    
       1317                4000.00    
       1318                4000.00    
       1319                4000.00    
       1320                4000.00    
       1321                4000.00    
       1322                4000.00    
       1323                4000.00    
       1324                4000.00    
       1325                4000.00    
       1326                4000.00    
       1327                4000.00    
       1328                4000.00    
       1329                4000.00    
       1330                4000.00    
       1331                4000.00    
       1332                4000.00    
       1333                4000.00    
       1334                4000.00    
       1335                4000.00    
       1336                4000.00    
       1337                4000.00    
       1338                4000.00    
       1339                4000.00    
       1340                4000.00    
       1341                4000.00    
       1342                4000.00    
       1343                4000.00    
       1344                4000.00    
       1345                4000.00    
       1346                4000.00    
       1347                4000.00    
       1348                4000.00    
       1349                4000.00    
       1350                4000.00    
       1351                4000.00    
       1352                4000.00    
       1353                4000.00    
       1354                4000.00    
       1355                4000.00    
       1356                4000.00    
       1357                4000.00    
       1358                4000.00    
       1359                4000.00    
       1360                4000.00    
       1361                4000.00    
       1362                4000.00    
       1363                4000.00    
       1364                4000.00    
       1365                4000.00    
       1366                4000.00    
       1367                4000.00    
       1368                4000.00    
       1369                4000.00    
       1370                4000.00    
       1371                4000.00    
       1372                4000.00    
       1373                4000.00    
       1374                4000.00    
       1375                4000.00    
       1376                4000.00    
       1377                4000.00    
       1378                4000.00    
       1379                4000.00    
       1380                4000.00    
       1381                4000.00    
       1382                4000.00    
       1383                4000.00    
       1384                4000.00    
       1385                4000.00    
       1386                4000.00    
       1387                4000.00    
       1388                4000.00    
       1389                4000.00    
       1390                4000.00    
       1391                4000.00    
       1392                4000.00    
       1393                4000.00    
       1394                4000.00    
       1395                4000.00    
       1396                4000.00    
       1397                4000.00    
       1398                4000.00    
       1399                4000.00    
       1400                4000.00    
       1401                4000.00    
       1402                4000.00    
       1403                4000.00    
       1404                4000.00    
       1405                4000.00    
       1406                4000.00    
       1407                4000.00    
       1408                4000.00    
       1409                4000.00    
       1410                4000.00    
       1411                4000.00    
       1412                4000.00    
       1413                4000.00    
       1414                4000.00    
       1415                4000.00    
       1416                4000.00    
       1417                4000.00    
       1418                4000.00    
       1419                4000.00    
       1420                4000.00    
       1421                4000.00    
       1422                4000.00    
       1423                4000.00    
       1424                4000.00    
       1425                4000.00    
       1426                4000.00    
       1427                4000.00    
       1428                4000.00    
       1429                4000.00    
       1430                4000.00    
       1431                4000.00    
       1432                4000.00    
       1433                4000.00    
       1434                4000.00    
       1435                4000.00    
       1436                4000.00    
       1437                4000.00    
       1438                4000.00    
       1439                4000.00    
       1440                4000.00    
       1441                4000.00    
       1442                4000.00    
       1443                4000.00    
       1444                4000.00    
       1445                4000.00    
       1446                4000.00    
       1447                4000.00    
       1448                4000.00    
       1449                4000.00    
       1450                4000.00    
       1451                4000.00    
       1452                4000.00    
       1453                4000.00    
       1454                4000.00    
       1455                4000.00    
       1456                4000.00    
       1457                4000.00    
       1458                4000.00    
       1459                4000.00    
       1460                4000.00    
       1461                4000.00    
       1462                4000.00    
       1463                4000.00    
       1464                4000.00    
       1465                4000.00    
       1466                4000.00    
       1467                4000.00    
       1468                4000.00    
       1469                4000.00    
       1470                4000.00    
       1471                4000.00    
       1472                4000.00    
       1473                4000.00    
       1474                4000.00    
       1475                4000.00    
       1476                4000.00    
       1477                4000.00    
       1478                4000.00    
       1479                4000.00    
       1480                4000.00    
       1481                4000.00    
       1482                4000.00    
       1483                4000.00    
       1484                4000.00    
       1485                4000.00    
       1486                4000.00    
       1487                4000.00    
       1488                4000.00    
       1489                4000.00    
       1490                4000.00    
       1491                4000.00    
       1492                4000.00    
       1493                4000.00    
       1494                4000.00    
       1495                4000.00    
       1496                4000.00    
       1497                4000.00    
       1498                4000.00    
       1499                4000.00    
       1500                4000.00    
       1501                4000.00    
       1502                4000.00    
       1503                4000.00    
       1504                4000.00    
       1505                4000.00    
       1506                4000.00    
       1507                4000.00    
       1508                4000.00    
       1509                4000.00    
       1510                4000.00    
       1511                4000.00    
       1512                4000.00    
       1513                4000.00    
       1514                4000.00    
       1515                4000.00    
       1516                4000.00    
       1517                4000.00    
       1518                4000.00    
       1519                4000.00    
       1520                4000.00    
       1521                4000.00    
       1522                4000.00    
       1523                4000.00    
       1524                4000.00    
       1525                4000.00    
       1526                4000.00    
       1527                4000.00    
       1528                4000.00    
       1529                4000.00    
       1530                4000.00    
       1531                4000.00    
       1532                4000.00    
       1533                4000.00    
       1534                4000.00    
       1535                4000.00    
       1536                4000.00    
       1537                4000.00    
       1538                4000.00    
       1539                4000.00    
       1540                4000.00    
       1541                4000.00    
       1542                4000.00    
       1543                4000.00    
       1544                4000.00    
       1545                4000.00    
       1546                4000.00    
       1547                4000.00    
       1548                4000.00    
       1549                4000.00    
       1550                4000.00    
       1551                4000.00    
       1552                4000.00    
       1553                4000.00    
       1554                4000.00    
       1555                4000.00    
       1556                4000.00    
       1557                4000.00    
       1558                4000.00    
       1559                4000.00    
       1560                4000.00    
       1561                4000.00    
       1562                4000.00    
       1563                4000.00    
       1564                4000.00    
       1565                4000.00    
       1566                4000.00    
       1567                4000.00    
       1568                4000.00    
       1569                4000.00    
       1570                4000.00    
       1571                4000.00    
       1572                4000.00    
       1573                4000.00    
       1574                4000.00    
       1575                4000.00    
       1576                4000.00    
       1577                4000.00    
       1578                4000.00    
       1579                4000.00    
       1580                4000.00    
       1581                4000.00    
       1582                4000.00    
       1583                4000.00    
       1584                4000.00    
       1585                4000.00    
       1586                4000.00    
       1587                4000.00    
       1588                4000.00    
       1589                4000.00    
       1590                4000.00    
       1591                4000.00    
       1592                4000.00    
       1593                4000.00    
       1594                4000.00    
       1595                4000.00    
       1596                4000.00    
       1597                4000.00    
       1598                4000.00    
       1599                4000.00    
       1600                4000.00    
       1601                4000.00    
       1602                4000.00    
       1603                4000.00    
       1604                4000.00    
       1605                4000.00    
       1606                4000.00    
       1607                4000.00    
       1608                4000.00    
       1609                4000.00    
       1610                4000.00    
       1611                4000.00    
       1612                4000.00    
       1613                4000.00    
       1614                4000.00    
       1615                4000.00    
       1616                4000.00    
       1617                4000.00    
       1618                4000.00    
       1619                4000.00    
       1620                4000.00    
       1621                4000.00    
       1622                4000.00    
       1623                4000.00    
       1624                4000.00    
       1625                4000.00    
       1626                4000.00    
       1627                4000.00    
       1628                4000.00    
       1629                4000.00    
       1630                4000.00    
       1631                4000.00    
       1632                4000.00    
       1633                4000.00    
       1634                4000.00    
       1635                4000.00    
       1636                4000.00    
       1637                4000.00    
       1638                4000.00    
       1639                4000.00    
       1640                4000.00    
       1641                4000.00    
       1642                4000.00    
       1643                4000.00    
       1644                4000.00    
       1645                4000.00    
       1646                4000.00    
       1647                4000.00    
       1648                4000.00    
       1649                4000.00    
       1650                4000.00    
       1651                4000.00    
       1652                4000.00    
       1653                4000.00    
       1654                4000.00    
       1655                4000.00    
       1656                4000.00    
       1657                4000.00    
       1658                4000.00    
       1659                4000.00    
       1660                4000.00    
       1661                4000.00    
       1662                4000.00    
       1663                4000.00    
       1664                4000.00    
       1665                4000.00    
       1666                4000.00    
       1667                4000.00    
       1668                4000.00    
       1669                4000.00    
       1670                4000.00    
       1671                4000.00    
       1672                4000.00    
       1673                4000.00    
       1674                4000.00    
       1675                4000.00    
       1676                4000.00    
       1677                4000.00    
       1678                4000.00    
       1679                4000.00    
       1680                4000.00    
       1681                4000.00    
       1682                4000.00    
       1683                4000.00    
       1684                4000.00    
       1685                4000.00    
       1686                4000.00    
       1687                4000.00    
       1688                4000.00    
       1689                4000.00    
       1690                4000.00    
       1691                4000.00    
       1692                4000.00    
       1693                4000.00    
       1694                4000.00    
       1695                4000.00    
       1696                4000.00    
       1697                4000.00    
       1698                4000.00    
       1699                4000.00    
       1700                4000.00    
       1701                4000.00    
       1702                4000.00    
       1703                4000.00    
       1704                4000.00    
       1705                4000.00    
       1706                4000.00    
       1707                4000.00    
       1708                4000.00    
       1709                4000.00    
       1710                4000.00    
       1711                4000.00    
       1712                4000.00    
       1713                4000.00    
       1714                4000.00    
       1715                4000.00    
       1716                4000.00    
       1717                4000.00    
       1718                4000.00    
       1719                4000.00    
       1720                4000.00    
       1721                4000.00    
       1722                4000.00    
       1723                4000.00    
       1724                4000.00    
       1725                4000.00    
       1726                4000.00    
       1727                4000.00    
       1728                4000.00    
       1729                4000.00    
       1730                4000.00    
       1731                4000.00    
       1732                4000.00    
       1733                4000.00    
       1734                4000.00    
       1735                4000.00    
       1736                4000.00    
       1737                4000.00    
       1738                4000.00    
       1739                4000.00    
       1740                4000.00    
       1741                4000.00    
       1742                4000.00    
       1743                4000.00    
       1744                4000.00    
       1745                4000.00    
       1746                4000.00    
       1747                4000.00    
       1748                4000.00    
       1749                4000.00    
       1750                4000.00    
       1751                4000.00    
       1752                4000.00    
       1753                4000.00    
       1754                4000.00    
       1755                4000.00    
       1756                4000.00    
       1757                4000.00    
       1758                4000.00    
       1759                4000.00    
       1760                4000.00    
       1761                4000.00    
       1762                4000.00    
       1763                4000.00    
       1764                4000.00    
       1765                4000.00    
       1766                4000.00    
       1767                4000.00    
       1768                4000.00    
       1769                4000.00    
       1770                4000.00    
       1771                4000.00    
       1772                4000.00    
       1773                4000.00    
       1774                4000.00    
       1775                4000.00    
       1776                4000.00    
       1777                4000.00    
       1778                4000.00    
       1779                4000.00    
       1780                4000.00    
       1781                4000.00    
       1782                4000.00    
       1783                4000.00    
       1784                4000.00    
       1785                4000.00    
       1786                4000.00    
       1787                4000.00    
       1788                4000.00    
       1789                4000.00    
       1790                4000.00    
       1791                4000.00    
       1792                4000.00    
       1793                4000.00    
       1794                4000.00    
       1795                4000.00    
       1796                4000.00    
       1797                4000.00    
       1798                4000.00    
       1799                4000.00    
       1800                4000.00    
       1801                4000.00    
       1802                4000.00    
       1803                4000.00    
       1804                4000.00    
       1805                4000.00    
       1806                4000.00    
       1807                4000.00    
       1808                4000.00    
       1809                4000.00    
       1810                4000.00    
       1811                4000.00    
       1812                4000.00    
       1813                4000.00    
       1814                4000.00    
       1815                4000.00    
       1816                4000.00    
       1817                4000.00    
       1818                4000.00    
       1819                4000.00    
       1820                4000.00    
       1821                4000.00    
       1822                4000.00    
       1823                4000.00    
       1824                4000.00    
       1825                4000.00    
       1826                4000.00    
       1827                4000.00    
       1828                4000.00    
       1829                4000.00    
       1830                4000.00    
       1831                4000.00    
       1832                4000.00    
       1833                4000.00    
       1834                4000.00    
       1835                4000.00    
       1836                4000.00    
       1837                4000.00    
       1838                4000.00    
       1839                4000.00    
       1840                4000.00    
       1841                4000.00    
       1842                4000.00    
       1843                4000.00    
       1844                4000.00    
       1845                4000.00    
       1846                4000.00    
       1847                4000.00    
       1848                4000.00    
       1849                4000.00    
       1850                4000.00    
       1851                4000.00    
       1852                4000.00    
       1853                4000.00    
       1854                4000.00    
       1855                4000.00    
       1856                4000.00    
       1857                4000.00    
       1858                4000.00    
       1859                4000.00    
       1860                4000.00    
       1861                4000.00    
       1862                4000.00    
       1863                4000.00    
       1864                4000.00    
       1865                4000.00    
       1866                4000.00    
       1867                4000.00    
       1868                4000.00    
       1869                4000.00    
       1870                4000.00    
       1871                4000.00    
       1872                4000.00    
       1873                4000.00    
       1874                4000.00    
       1875                4000.00    
       1876                4000.00    
       1877                4000.00    
       1878                4000.00    
       1879                4000.00    
       1880                4000.00    
       1881                4000.00    
       1882                4000.00    
       1883                4000.00    
       1884                4000.00    
       1885                4000.00    
       1886                4000.00    
       1887                4000.00    
       1888                4000.00    
       1889                4000.00    
       1890                4000.00    
       1891                4000.00    
       1892                4000.00    
       1893                4000.00    
       1894                4000.00    
       1895                4000.00    
       1896                4000.00    
       1897                4000.00    
       1898                4000.00    
       1899                4000.00    
       1900                4000.00    
       1901                4000.00    
       1902                4000.00    
       1903                4000.00    
       1904                4000.00    
       1905                4000.00    
       1906                4000.00    
       1907                4000.00    
       1908                4000.00    
       1909                4000.00    
       1910                4000.00    
       1911                4000.00    
       1912                4000.00    
       1913                4000.00    
       1914                4000.00    
       1915                4000.00    
       1916                4000.00    
       1917                4000.00    
       1918                4000.00    
       1919                4000.00    
       1920                4000.00    
       1921                4000.00    
       1922                4000.00    
       1923                4000.00    
       1924                4000.00    
       1925                4000.00    
       1926                4000.00    
       1927                4000.00    
       1928                4000.00    
       1929                4000.00    
       1930                4000.00    
       1931                4000.00    
       1932                4000.00    
       1933                4000.00    
       1934                4000.00    
       1935                4000.00    
       1936                4000.00    
       1937                4000.00    
       1938                4000.00    
       1939                4000.00    
       1940                4000.00    
       1941                4000.00    
       1942                4000.00    
       1943                4000.00    
       1944                4000.00    
       1945                4000.00    
       1946                4000.00    
       1947                4000.00    
       1948                4000.00    
       1949                4000.00    
       1950                4000.00    
       1951                4000.00    
       1952                4000.00    
       1953                4000.00    
       1954                4000.00    
       1955                4000.00    
       1956                4000.00    
       1957                4000.00    
       1958                4000.00    
       1959                4000.00    
       1960                4000.00    
       1961                4000.00    
       1962                4000.00    
       1963                4000.00    
       1964                4000.00    
       1965                4000.00    
       1966                4000.00    
       1967                4000.00    
       1968                4000.00    
       1969                4000.00    
       1970                4000.00    
       1971                4000.00    
       1972                4000.00    
       1973                4000.00    
       1974                4000.00    
       1975                4000.00    
       1976                4000.00    
       1977                4000.00    
       1978                4000.00    
       1979                4000.00    
       1980                4000.00    
       1981                4000.00    
       1982                4000.00    
       1983                4000.00    
       1984                4000.00    
       1985                4000.00    
       1986                4000.00    
       1987                4000.00    
       1988                4000.00    
       1989                4000.00    
       1990                4000.00    
       1991                4000.00    
       1992                4000.00    
       1993                4000.00    
       1994                4000.00    
       1995                4000.00    
       1996                4000.00    
       1997                4000.00    
       1998                4000.00    
       1999                4000.00    
       2000                4000.00    
       2001                4000.00    
       2002                4000.00    
       2003                4000.00    
       2004                4000.00    
       2005                4000.00    
       2006                4000.00    
       2007                4000.00    
       2008                4000.00    
       2009                4000.00    
       2010                4000.00    
       2011                4000.00    
       2012                4000.00    
       2013                4000.00    
       2014                4000.00    
       2015                4000.00    
       2016                4000.00    
       2017                4000.00    
       2018                4000.00    
       2019                4000.00    
       2020                4000.00    
       2021                4000.00    
       2022                4000.00    
       2023                4000.00    
       2024                4000.00    
       2025                4000.00    
       2026                4000.00    
       2027                4000.00    
       2028                4000.00    
       2029                4000.00    
       2030                4000.00    
       2031                4000.00    
       2032                4000.00    
       2033                4000.00    
       2034                4000.00    
       2035                4000.00    
       2036                4000.00    
       2037                4000.00    
       2038                4000.00    
       2039                4000.00    
       2040                4000.00    
       2041                4000.00    
       2042                4000.00    
       2043                4000.00    
       2044                4000.00    
       2045                4000.00    
       2046                4000.00    
       2047                4000.00    
       2048                4000.00    
       2049                4000.00    
       2050                4000.00    
       2051                4000.00    
       2052                4000.00    
       2053                4000.00    
       2054                4000.00    
       2055                4000.00    
       2056                4000.00    
       2057                4000.00    
       2058                4000.00    
       2059                4000.00    
       2060                4000.00    
       2061                4000.00    
       2062                4000.00    
       2063                4000.00    
       2064                4000.00    
       2065                4000.00    
       2066                4000.00    
       2067                4000.00    
       2068                4000.00    
       2069                4000.00    
       2070                4000.00    
       2071                4000.00    
       2072                4000.00    
       2073                4000.00    
       2074                4000.00    
       2075                4000.00    
       2076                4000.00    
       2077                4000.00    
       2078                4000.00    
       2079                4000.00    
       2080                4000.00    
       2081                4000.00    
       2082                4000.00    
       2083                4000.00    
       2084                4000.00    
       2085                4000.00    
       2086                4000.00    
       2087                4000.00    
       2088                4000.00    
       2089                4000.00    
       2090                4000.00    
       2091                4000.00    
       2092                4000.00    
       2093                4000.00    
       2094                4000.00    
       2095                4000.00    
       2096                4000.00    
       2097                4000.00    
       2098                4000.00    
       2099                4000.00    
       2100                4000.00    
       2101                4000.00    
       2102                4000.00    
       2103                4000.00    
       2104                4000.00    
       2105                4000.00    
       2106                4000.00    
       2107                4000.00    
       2108                4000.00    
       2109                4000.00    
       2110                4000.00    
       2111                4000.00    
       2112                4000.00    
       2113                4000.00    
       2114                4000.00    
       2115                4000.00    
       2116                4000.00    
       2117                4000.00    
       2118                4000.00    
       2119                4000.00    
       2120                4000.00    
       2121                4000.00    
       2122                4000.00    
       2123                4000.00    
       2124                4000.00    
       2125                4000.00    
       2126                4000.00    
       2127                4000.00    
       2128                4000.00    
       2129                4000.00    
       2130                4000.00    
       2131                4000.00    
       2132                4000.00    
       2133                4000.00    
       2134                4000.00    
       2135                4000.00    
       2136                4000.00    
       2137                4000.00    
       2138                4000.00    
       2139                4000.00    
       2140                4000.00    
       2141                4000.00    
       2142                4000.00    
       2143                4000.00    
       2144                4000.00    
       2145                4000.00    
       2146                4000.00    
       2147                4000.00    
       2148                4000.00    
       2149                4000.00    
       2150                4000.00    
       2151                4000.00    
       2152                4000.00    
       2153                4000.00    
       2154                4000.00    
       2155                4000.00    
       2156                4000.00    
       2157                4000.00    
       2158                4000.00    
       2159                4000.00    
       2160                4000.00    
       2161                4000.00    
       2162                4000.00    
       2163                4000.00    
       2164                4000.00    
       2165                4000.00    
       2166                4000.00    
       2167                4000.00    
       2168                4000.00    
       2169                4000.00    
       2170                4000.00    
       2171                4000.00    
       2172                4000.00    
       2173                4000.00    
       2174                4000.00    
       2175                4000.00    
       2176                4000.00    
       2177                4000.00    
       2178                4000.00    
       2179                4000.00    
       2180                4000.00    
       2181                4000.00    
       2182                4000.00    
       2183                4000.00    
       2184                4000.00    
       2185                4000.00    
       2186                4000.00    
       2187                4000.00    
       2188                4000.00    
       2189                4000.00    
       2190                4000.00    
       2191                4000.00    
       2192                4000.00    
       2193                4000.00    
       2194                4000.00    
       2195                4000.00    
       2196                4000.00    
       2197                4000.00    
       2198                4000.00    
       2199                4000.00    
       2200                4000.00    
       2201                4000.00    
       2202                4000.00    
       2203                4000.00    
       2204                4000.00    
       2205                4000.00    
       2206                4000.00    
       2207                4000.00    
       2208                4000.00    
       2209                4000.00    
       2210                4000.00    
       2211                4000.00    
       2212                4000.00    
       2213                4000.00    
       2214                4000.00    
       2215                4000.00    
       2216                4000.00    
       2217                4000.00    
       2218                4000.00    
       2219                4000.00    
       2220                4000.00    
       2221                4000.00    
       2222                4000.00    
       2223                4000.00    
       2224                4000.00    
       2225                4000.00    
       2226                4000.00    
       2227                4000.00    
       2228                4000.00    
       2229                4000.00    
       2230                4000.00    
       2231                4000.00    
       2232                4000.00    
       2233                4000.00    
       2234                4000.00    
       2235                4000.00    
       2236                4000.00    
       2237                4000.00    
       2238                4000.00    
       2239                4000.00    
       2240                4000.00    
       2241                4000.00    
       2242                4000.00    
       2243                4000.00    
       2244                4000.00    
       2245                4000.00    
       2246                4000.00    
       2247                4000.00    
       2248                4000.00    
       2249                4000.00    
       2250                4000.00    
       2251                4000.00    
       2252                4000.00    
       2253                4000.00    
       2254                4000.00    
       2255                4000.00    
       2256                4000.00    
       2257                4000.00    
       2258                4000.00    
       2259                4000.00    
       2260                4000.00    
       2261                4000.00    
       2262                4000.00    
       2263                4000.00    
       2264                4000.00    
       2265                4000.00    
       2266                4000.00    
       2267                4000.00    
       2268                4000.00    
       2269                4000.00    
       2270                4000.00    
       2271                4000.00    
       2272                4000.00    
       2273                4000.00    
       2274                4000.00    
       2275                4000.00    
       2276                4000.00    
       2277                4000.00    
       2278                4000.00    
       2279                4000.00    
       2280                4000.00    
       2281                4000.00    
       2282                4000.00    
       2283                4000.00    
       2284                4000.00    
       2285                4000.00    
       2286                4000.00    
       2287                4000.00    
       2288                4000.00    
       2289                4000.00    
       2290                4000.00    
       2291                4000.00    
       2292                4000.00    
       2293                4000.00    
       2294                4000.00    
       2295                4000.00    
       2296                4000.00    
       2297                4000.00    
       2298                4000.00    
       2299                4000.00    
       2300                4000.00    
       2301                4000.00    
       2302                4000.00    
       2303                4000.00    
       2304                4000.00    
       2305                4000.00    
       2306                4000.00    
       2307                4000.00    
       2308                4000.00    
       2309                4000.00    
       2310                4000.00    
       2311                4000.00    
       2312                4000.00    
       2313                4000.00    
       2314                4000.00    
       2315                4000.00    
       2316                4000.00    
       2317                4000.00    
       2318                4000.00    
       2319                4000.00    
       2320                4000.00    
       2321                4000.00    
       2322                4000.00    
       2323                4000.00    
       2324                4000.00    
       2325                4000.00    
       2326                4000.00    
       2327                4000.00    
       2328                4000.00    
       2329                4000.00    
       2330                4000.00    
       2331                4000.00    
       2332                4000.00    
       2333                4000.00    
       2334                4000.00    
       2335                4000.00    
       2336                4000.00    
       2337                4000.00    
       2338                4000.00    
       2339                4000.00    
       2340                4000.00    
       2341                4000.00    
       2342                4000.00    
       2343                4000.00    
       2344                4000.00    
       2345                4000.00    
       2346                4000.00    
       2347                4000.00    
       2348                4000.00    
       2349                4000.00    
       2350                4000.00    
       2351                4000.00    
       2352                4000.00    
       2353                4000.00    
       2354                4000.00    
       2355                4000.00    
       2356                4000.00    
       2357                4000.00    
       2358                4000.00    
       2359                4000.00    
       2360                4000.00    
       2361                4000.00    
       2362                4000.00    
       2363                4000.00    
       2364                4000.00    
       2365                4000.00    
       2366                4000.00    
       2367                4000.00    
       2368                4000.00    
       2369                4000.00    
       2370                4000.00    
       2371                4000.00    
       2372                4000.00    
       2373                4000.00    
       2374                4000.00    
       2375                4000.00    
       2376                4000.00    
       2377                4000.00    
       2378                4000.00    
       2379                4000.00    
       2380                4000.00    
       2381                4000.00    
       2382                4000.00    
       2383                4000.00    
       2384                4000.00    
       2385                4000.00    
       2386                4000.00    
       2387                4000.00    
       2388                4000.00    
       2389                4000.00    
       2390                4000.00    
       2391                4000.00    
       2392                4000.00    
       2393                4000.00    
       2394                4000.00    
       2395                4000.00    
       2396                4000.00    
       2397                4000.00    
       2398                4000.00    
       2399                4000.00    
       2400                4000.00    
       2401                4000.00    
       2402                4000.00    
       2403                4000.00    
       2404                4000.00    
       2405                4000.00    
       2406                4000.00    
       2407                4000.00    
       2408                4000.00    
       2409                4000.00    
       2410                4000.00    
       2411                4000.00    
       2412                4000.00    
       2413                4000.00    
       2414                4000.00    
       2415                4000.00    
       2416                4000.00    
       2417                4000.00    
       2418                4000.00    
       2419                4000.00    
       2420                4000.00    
       2421                4000.00    
       2422                4000.00    
       2423                4000.00    
       2424                4000.00    
       2425                4000.00    
       2426                4000.00    
       2427                4000.00    
       2428                4000.00    
       2429                4000.00    
       2430                4000.00    
       2431                4000.00    
       2432                4000.00    
       2433                4000.00    
       2434                4000.00    
       2435                4000.00    
       2436                4000.00    
       2437                4000.00    
       2438                4000.00    
       2439                4000.00    
       2440                4000.00    
       2441                4000.00    
       2442                4000.00    
       2443                4000.00    
       2444                4000.00    
       2445                4000.00    
       2446                4000.00    
       2447                4000.00    
       2448                4000.00    
       2449                4000.00    
       2450                4000.00    
       2451                4000.00    
       2452                4000.00    
       2453                4000.00    
       2454                4000.00    
       2455                4000.00    
       2456                4000.00    
       2457                4000.00    
       2458                4000.00    
       2459                4000.00    
       2460                4000.00    
       2461                4000.00    
       2462                4000.00    
       2463                4000.00    
       2464                4000.00    
       2465                4000.00    
       2466                4000.00    
       2467                4000.00    
       2468                4000.00    
       2469                4000.00    
       2470                4000.00    
       2471                4000.00    
       2472                4000.00    
       2473                4000.00    
       2474                4000.00    
       2475                4000.00    
       2476                4000.00    
       2477                4000.00    
       2478                4000.00    
       2479                4000.00    
       2480                4000.00    
       2481                4000.00    
       2482                4000.00    
       2483                4000.00    
       2484                4000.00    
       2485                4000.00    
       2486                4000.00    
       2487                4000.00    
       2488                4000.00    
       2489                4000.00    
       2490                4000.00    
       2491                4000.00    
       2492                4000.00    
       2493                4000.00    
       2494                4000.00    
       2495                4000.00    
       2496                4000.00    
       2497                4000.00    
       2498                4000.00    
       2499                4000.00    
       2500                4000.00    
       2501                4000.00    
       2502                4000.00    
       2503                4000.00    
       2504                4000.00    
       2505                4000.00    
       2506                4000.00    
       2507                4000.00    
       2508                4000.00    
       2509                4000.00    
       2510                4000.00    
       2511                4000.00    
       2512                4000.00    
       2513                4000.00    
       2514                4000.00    
       2515                4000.00    
       2516                4000.00    
       2517                4000.00    
       2518                4000.00    
       2519                4000.00    
       2520                4000.00    
       2521                4000.00    
       2522                4000.00    
       2523                4000.00    
       2524                4000.00    
       2525                4000.00    
       2526                4000.00    
       2527                4000.00    
       2528                4000.00    
       2529                4000.00    
       2530                4000.00    
       2531                4000.00    
       2532                4000.00    
       2533                4000.00    
       2534                4000.00    
       2535                4000.00    
       2536                4000.00    
       2537                4000.00    
       2538                4000.00    
       2539                4000.00    
       2540                4000.00    
       2541                4000.00    
       2542                4000.00    
       2543                4000.00    
       2544                4000.00    
       2545                4000.00    
       2546                4000.00    
       2547                4000.00    
       2548                4000.00    
       2549                4000.00    
       2550                4000.00    
       2551                4000.00    
       2552                4000.00    
       2553                4000.00    
       2554                4000.00    
       2555                4000.00    
       2556                4000.00    
       2557                4000.00    
       2558                4000.00    
       2559                4000.00    
       2560                4000.00    
       2561                4000.00    
       2562                4000.00    
       2563                4000.00    
       2564                4000.00    
       2565                4000.00    
       2566                4000.00    
       2567                4000.00    
       2568                4000.00    
       2569                4000.00    
       2570                4000.00    
       2571                4000.00    
       2572                4000.00    
       2573                4000.00    
       2574                4000.00    
       2575                4000.00    
       2576                4000.00    
       2577                4000.00    
       2578                4000.00    
       2579                4000.00    
       2580                4000.00    
       2581                4000.00    
       2582                4000.00    
       2583                4000.00    
       2584                4000.00    
       2585                4000.00    
       2586                4000.00    
       2587                4000.00    
       2588                4000.00    
       2589                4000.00    
       2590                4000.00    
       2591                4000.00    
       2592                4000.00    
       2593                4000.00    
       2594                4000.00    
       2595                4000.00    
       2596                4000.00    
       2597                4000.00    
       2598                4000.00    
       2599                4000.00    
       2600                4000.00    
       2601                4000.00    
       2602                4000.00    
       2603                4000.00    
       2604                4000.00    
       2605                4000.00    
       2606                4000.00    
       2607                4000.00    
       2608                4000.00    
       2609                4000.00    
       2610                4000.00    
       2611                4000.00    
       2612                4000.00    
       2613                4000.00    
       2614                4000.00    
       2615                4000.00    
       2616                4000.00    
       2617                4000.00    
       2618                4000.00    
       2619                4000.00    
       2620                4000.00    
       2621                4000.00    
       2622                4000.00    
       2623                4000.00    
       2624                4000.00    
       2625                4000.00    
       2626                4000.00    
       2627                4000.00    
       2628                4000.00    
       2629                4000.00    
       2630                4000.00    
       2631                4000.00    
       2632                4000.00    
       2633                4000.00    
       2634                4000.00    
       2635                4000.00    
       2636                4000.00    
       2637                4000.00    
       2638                4000.00    
       2639                4000.00    
       2640                4000.00    
       2641                4000.00    
       2642                4000.00    
       2643                4000.00    
       2644                4000.00    
       2645                4000.00    
       2646                4000.00    
       2647                4000.00    
       2648                4000.00    
       2649                4000.00    
       2650                4000.00    
       2651                4000.00    
       2652                4000.00    
       2653                4000.00    
       2654                4000.00    
       2655                4000.00    
       2656                4000.00    
       2657                4000.00    
       2658                4000.00    
       2659                4000.00    
       2660                4000.00    
       2661                4000.00    
       2662                4000.00    
       2663                4000.00    
       2664                4000.00    
       2665                4000.00    
       2666                4000.00    
       2667                4000.00    
       2668                4000.00    
       2669                4000.00    
       2670                4000.00    
       2671                4000.00    
       2672                4000.00    
       2673                4000.00    
       2674                4000.00    
       2675                4000.00    
       2676                4000.00    
       2677                4000.00    
       2678                4000.00    
       2679                4000.00    
       2680                4000.00    
       2681                4000.00    
       2682                4000.00    
       2683                4000.00    
       2684                4000.00    
       2685                4000.00    
       2686                4000.00    
       2687                4000.00    
       2688                4000.00    
       2689                4000.00    
       2690                4000.00    
       2691                4000.00    
       2692                4000.00    
       2693                4000.00    
       2694                4000.00    
       2695                4000.00    
       2696                4000.00    
       2697                4000.00    
       2698                4000.00    
       2699                4000.00    
       2700                4000.00    
       2701                4000.00    
       2702                4000.00    
       2703                4000.00    
       2704                4000.00    
       2705                4000.00    
       2706                4000.00    
       2707                4000.00    
       2708                4000.00    
       2709                4000.00    
       2710                4000.00    
       2711                4000.00    
       2712                4000.00    
       2713                4000.00    
       2714                4000.00    
       2715                4000.00    
       2716                4000.00    
       2717                4000.00    
       2718                4000.00    
       2719                4000.00    
       2720                4000.00    
       2721                4000.00    
       2722                4000.00    
       2723                4000.00    
       2724                4000.00    
       2725                4000.00    
       2726                4000.00    
       2727                4000.00    
       2728                4000.00    
       2729                4000.00    
       2730                4000.00    
       2731                4000.00    
       2732                4000.00    
       2733                4000.00    
       2734                4000.00    
       2735                4000.00    
       2736                4000.00    
       2737                4000.00    
       2738                4000.00    
       2739                4000.00    
       2740                4000.00    
       2741                4000.00    
       2742                4000.00    
       2743                4000.00    
       2744                4000.00    
       2745                4000.00    
       2746                4000.00    
       2747                4000.00    
       2748                4000.00    
       2749                4000.00    
       2750                4000.00    
       2751                4000.00    
       2752                4000.00    
       2753                4000.00    
       2754                4000.00    
       2755                4000.00    
       2756                4000.00    
       2757                4000.00    
       2758                4000.00    
       2759                4000.00    
       2760                4000.00    
       2761                4000.00    
       2762                4000.00    
       2763                4000.00    
       2764                4000.00    
       2765                4000.00    
       2766                4000.00    
       2767                4000.00    
       2768                4000.00    
       2769                4000.00    
       2770                4000.00    
       2771                4000.00    
       2772                4000.00    
       2773                4000.00    
       2774                4000.00    
       2775                4000.00    
       2776                4000.00    
       2777                4000.00    
       2778                4000.00    
       2779                4000.00    
       2780                4000.00    
       2781                4000.00    
       2782                4000.00    
       2783                4000.00    
       2784                4000.00    
       2785                4000.00    
       2786                4000.00    
       2787                4000.00    
       2788                4000.00    
       2789                4000.00    
       2790                4000.00    
       2791                4000.00    
       2792                4000.00    
       2793                4000.00    
       2794                4000.00    
       2795                4000.00    
       2796                4000.00    
       2797                4000.00    
       2798                4000.00    
       2799                4000.00    
       2800                4000.00    
       2801                4000.00    
       2802                4000.00    
       2803                4000.00    
       2804                4000.00    
       2805                4000.00    
       2806                4000.00    
       2807                4000.00    
       2808                4000.00    
       2809                4000.00    
       2810                4000.00    
       2811                4000.00    
       2812                4000.00    
       2813                4000.00    
       2814                4000.00    
       2815                4000.00    
       2816                4000.00    
       2817                4000.00    
       2818                4000.00    
       2819                4000.00    
       2820                4000.00    
       2821                4000.00    
       2822                4000.00    
       2823                4000.00    
       2824                4000.00    
       2825                4000.00    
       2826                4000.00    
       2827                4000.00    
       2828                4000.00    
       2829                4000.00    
       2830                4000.00    
       2831                4000.00    
       2832                4000.00    
       2833                4000.00    
       2834                4000.00    
       2835                4000.00    
       2836                4000.00    
       2837                4000.00    
       2838                4000.00    
       2839                4000.00    
       2840                4000.00    
       2841                4000.00    
       2842                4000.00    
       2843                4000.00    
       2844                4000.00    
       2845                4000.00    
       2846                4000.00    
       2847                4000.00    
       2848                4000.00    
       2849                4000.00    
       2850                4000.00    
       2851                4000.00    
       2852                4000.00    
       2853                4000.00    
       2854                4000.00    
       2855                4000.00    
       2856                4000.00    
       2857                4000.00    
       2858                4000.00    
       2859                4000.00    
       2860                4000.00    
       2861                4000.00    
       2862                4000.00    
       2863                4000.00    
       2864                4000.00    
       2865                4000.00    
       2866                4000.00    
       2867                4000.00    
       2868                4000.00    
       2869                4000.00    
       2870                4000.00    
       2871                4000.00    
       2872                4000.00    
       2873                4000.00    
       2874                4000.00    
       2875                4000.00    
       2876                4000.00    
       2877                4000.00    
       2878                4000.00    
       2879                4000.00    
       2880                4000.00    
       2881                4000.00    
       2882                4000.00    
       2883                4000.00    
       2884                4000.00    
       2885                4000.00    
       2886                4000.00    
       2887                4000.00    
       2888                4000.00    
       2889                4000.00    
       2890                4000.00    
       2891                4000.00    
       2892                4000.00    
       2893                4000.00    
       2894                4000.00    
       2895                4000.00    
       2896                4000.00    
       2897                4000.00    
       2898                4000.00    
       2899                4000.00    
       2900                4000.00    
       2901                4000.00    
       2902                4000.00    
       2903                4000.00    
       2904                4000.00    
       2905                4000.00    
       2906                4000.00    
       2907                4000.00    
       2908                4000.00    
       2909                4000.00    
       2910                4000.00    
       2911                4000.00    
       2912                4000.00    
       2913                4000.00    
       2914                4000.00    
       2915                4000.00    
       2916                4000.00    
       2917                4000.00    
       2918                4000.00    
       2919                4000.00    
       2920                4000.00    
       2921                4000.00    
       2922                4000.00    
       2923                4000.00    
       2924                4000.00    
       2925                4000.00    
       2926                4000.00    
       2927                4000.00    
       2928                4000.00    
       2929                4000.00    
       2930                4000.00    
       2931                4000.00    
       2932                4000.00    
       2933                4000.00    
       2934                4000.00    
       2935                4000.00    
       2936                4000.00    
       2937                4000.00    
       2938                4000.00    
       2939                4000.00    
       2940                4000.00    
       2941                4000.00    
       2942                4000.00    
       2943                4000.00    
       2944                4000.00    
       2945                4000.00    
       2946                4000.00    
       2947                4000.00    
       2948                4000.00    
       2949                4000.00    
       2950                4000.00    
       2951                4000.00    
       2952                4000.00    
       2953                4000.00    
       2954                4000.00    
       2955                4000.00    
       2956                4000.00    
       2957                4000.00    
       2958                4000.00    
       2959                4000.00    
       2960                4000.00    
       2961                4000.00    
       2962                4000.00    
       2963                4000.00    
       2964                4000.00    
       2965                4000.00    
       2966                4000.00    
       2967                4000.00    
       2968                4000.00    
       2969                4000.00    
       2970                4000.00    
       2971                4000.00    
       2972                4000.00    
       2973                4000.00    
       2974                4000.00    
       2975                4000.00    
       2976                4000.00    
       2977                4000.00    
       2978                4000.00    
       2979                4000.00    
       2980                4000.00    
       2981                4000.00    
       2982                4000.00    
       2983                4000.00    
       2984                4000.00    
       2985                4000.00    
       2986                4000.00    
       2987                4000.00    
       2988                4000.00    
       2989                4000.00    
       2990                4000.00    
       2991                4000.00    
       2992                4000.00    
       2993                4000.00    
       2994                4000.00    
       2995                4000.00    
       2996                4000.00    
       2997                4000.00    
       2998                4000.00    
       2999                4000.00    
       3000                4000.00    
       3001                4000.00    
       3002                4000.00    
       3003                4000.00    
       3004                4000.00    
       3005                4000.00    
       3006                4000.00    
       3007                4000.00    
       3008                4000.00    
       3009                4000.00    
       3010                4000.00    
       3011                4000.00    
       3012                4000.00    
       3013                4000.00    
       3014                4000.00    
       3015                4000.00    
       3016                4000.00    
       3017                4000.00    
       3018                4000.00    
       3019                4000.00    
       3020                4000.00    
       3021                4000.00    
       3022                4000.00    
       3023                4000.00    
       3024                4000.00    
       3025                4000.00    
       3026                4000.00    
       3027                4000.00    
       3028                4000.00    
       3029                4000.00    
       3030                4000.00    
       3031                4000.00    
       3032                4000.00    
       3033                4000.00    
       3034                4000.00    
       3035                4000.00    
       3036                4000.00    
       3037                4000.00    
       3038                4000.00    
       3039                4000.00    
       3040                4000.00    
       3041                4000.00    
       3042                4000.00    
       3043                4000.00    
       3044                4000.00    
       3045                4000.00    
       3046                4000.00    
       3047                4000.00    
       3048                4000.00    
       3049                4000.00    
       3050                4000.00    
       3051                4000.00    
       3052                4000.00    
       3053                4000.00    
       3054                4000.00    
       3055                4000.00    
       3056                4000.00    
       3057                4000.00    
       3058                4000.00    
       3059                4000.00    
       3060                4000.00    
       3061                4000.00    
       3062                4000.00    
       3063                4000.00    
       3064                4000.00    
       3065                4000.00    
       3066                4000.00    
       3067                4000.00    
       3068                4000.00    
       3069                4000.00    
       3070                4000.00    
       3071                4000.00    
       3072                4000.00    
       3073                4000.00    
       3074                4000.00    
       3075                4000.00    
       3076                4000.00    
       3077                4000.00    
       3078                4000.00    
       3079                4000.00    
       3080                4000.00    
       3081                4000.00    
       3082                4000.00    
       3083                4000.00    
       3084                4000.00    
       3085                4000.00    
       3086                4000.00    
       3087                4000.00    
       3088                4000.00    
       3089                4000.00    
       3090                4000.00    
       3091                4000.00    
       3092                4000.00    
       3093                4000.00    
       3094                4000.00    
       3095                4000.00    
       3096                4000.00    
       3097                4000.00    
       3098                4000.00    
       3099                4000.00    
       3100                4000.00    
       3101                4000.00    
       3102                4000.00    
       3103                4000.00    
       3104                4000.00    
       3105                4000.00    
       3106                4000.00    
       3107                4000.00    
       3108                4000.00    
       3109                4000.00    
       3110                4000.00    
       3111                4000.00    
       3112                4000.00    
       3113                4000.00    
       3114                4000.00    
       3115                4000.00    
       3116                4000.00    
       3117                4000.00    
       3118                4000.00    
       3119                4000.00    
       3120                4000.00    
       3121                4000.00    
       3122                4000.00    
       3123                4000.00    
       3124                4000.00    
       3125                4000.00    
       3126                4000.00    
       3127                4000.00    
       3128                4000.00    
       3129                4000.00    
       3130                4000.00    
       3131                4000.00    
       3132                4000.00    
       3133                4000.00    
       3134                4000.00    
       3135                4000.00    
       3136                4000.00    
       3137                4000.00    
       3138                4000.00    
       3139                4000.00    
       3140                4000.00    
       3141                4000.00    
       3142                4000.00    
       3143                4000.00    
       3144                4000.00    
       3145                4000.00    
       3146                4000.00    
       3147                4000.00    
       3148                4000.00    
       3149                4000.00    
       3150                4000.00    
       3151                4000.00    
       3152                4000.00    
       3153                4000.00    
       3154                4000.00    
       3155                4000.00    
       3156                4000.00    
       3157                4000.00    
       3158                4000.00    
       3159                4000.00    
       3160                4000.00    
       3161                4000.00    
       3162                4000.00    
       3163                4000.00    
       3164                4000.00    
       3165                4000.00    
       3166                4000.00    
       3167                4000.00    
       3168                4000.00    
       3169                4000.00    
       3170                4000.00    
       3171                4000.00    
       3172                4000.00    
       3173                4000.00    
       3174                4000.00    
       3175                4000.00    
       3176                4000.00    
       3177                4000.00    
       3178                4000.00    
       3179                4000.00    
       3180                4000.00    
       3181                4000.00    
       3182                4000.00    
       3183                4000.00    
       3184                4000.00    
       3185                4000.00    
       3186                4000.00    
       3187                4000.00    
       3188                4000.00    
       3189                4000.00    
       3190                4000.00    
       3191                4000.00    
       3192                4000.00    
       3193                4000.00    
       3194                4000.00    
       3195                4000.00    
       3196                4000.00    
       3197                4000.00    
       3198                4000.00    
       3199                4000.00    
       3200                4000.00    
       3201                4000.00    
       3202                4000.00    
       3203                4000.00    
       3204                4000.00    
       3205                4000.00    
       3206                4000.00    
       3207                4000.00    
       3208                4000.00    
       3209                4000.00    
       3210                4000.00    
       3211                4000.00    
       3212                4000.00    
       3213                4000.00    
       3214                4000.00    
       3215                4000.00    
       3216                4000.00    
       3217                4000.00    
       3218                4000.00    
       3219                4000.00    
       3220                4000.00    
       3221                4000.00    
       3222                4000.00    
       3223                4000.00    
       3224                4000.00    
       3225                4000.00    
       3226                4000.00    
       3227                4000.00    
       3228                4000.00    
       3229                4000.00    
       3230                4000.00    
       3231                4000.00    
       3232                4000.00    
       3233                4000.00    
       3234                4000.00    
       3235                4000.00    
       3236                4000.00    
       3237                4000.00    
       3238                4000.00    
       3239                4000.00    
       3240                4000.00    
       3241                4000.00    
       3242                4000.00    
       3243                4000.00    
       3244                4000.00    
       3245                4000.00    
       3246                4000.00    
       3247                4000.00    
       3248                4000.00    
       3249                4000.00    
       3250                4000.00    
       3251                4000.00    
       3252                4000.00    
       3253                4000.00    
       3254                4000.00    
       3255                4000.00    
       3256                4000.00    
       3257                4000.00    
       3258                4000.00    
       3259                4000.00    
       3260                4000.00    
       3261                4000.00    
       3262                4000.00    
       3263                4000.00    
       3264                4000.00    
       3265                4000.00    
       3266                4000.00    
       3267                4000.00    
       3268                4000.00    
       3269                4000.00    
       3270                4000.00    
       3271                4000.00    
       3272                4000.00    
       3273                4000.00    
       3274                4000.00    
       3275                4000.00    
       3276                4000.00    
       3277                4000.00    
       3278                4000.00    
       3279                4000.00    
       3280                4000.00    
       3281                4000.00    
       3282                4000.00    
       3283                4000.00    
       3284                4000.00    
       3285                4000.00    
       3286                4000.00    
       3287                4000.00    
       3288                4000.00    
       3289                4000.00    
       3290                4000.00    
       3291                4000.00    
       3292                4000.00    
       3293                4000.00    
       3294                4000.00    
       3295                4000.00    
       3296                4000.00    
       3297                4000.00    
       3298                4000.00    
       3299                4000.00    
       3300                4000.00    
       3301                4000.00    
       3302                4000.00    
       3303                4000.00    
       3304                4000.00    
       3305                4000.00    
       3306                4000.00    
       3307                4000.00    
       3308                4000.00    
       3309                4000.00    
       3310                4000.00    
       3311                4000.00    
       3312                4000.00    
       3313                4000.00    
       3314                4000.00    
       3315                4000.00    
       3316                4000.00    
       3317                4000.00    
       3318                4000.00    
       3319                4000.00    
       3320                4000.00    
       3321                4000.00    
       3322                4000.00    
       3323                4000.00    
       3324                4000.00    
       3325                4000.00    
       3326                4000.00    
       3327                4000.00    
       3328                4000.00    
       3329                4000.00    
       3330                4000.00    
       3331                4000.00    
       3332                4000.00    
       3333                4000.00    
       3334                4000.00    
       3335                4000.00    
       3336                4000.00    
       3337                4000.00    
       3338                4000.00    
       3339                4000.00    
       3340                4000.00    
       3341                4000.00    
       3342                4000.00    
       3343                4000.00    
       3344                4000.00    
       3345                4000.00    
       3346                4000.00    
       3347                4000.00    
       3348                4000.00    
       3349                4000.00    
       3350                4000.00    
       3351                4000.00    
       3352                4000.00    
       3353                4000.00    
       3354                4000.00    
       3355                4000.00    
       3356                4000.00    
       3357                4000.00    
       3358                4000.00    
       3359                4000.00    
       3360                4000.00    
       3361                4000.00    
       3362                4000.00    
       3363                4000.00    
       3364                4000.00    
       3365                4000.00    
       3366                4000.00    
       3367                4000.00    
       3368                4000.00    
       3369                4000.00    
       3370                4000.00    
       3371                4000.00    
       3372                4000.00    
       3373                4000.00    
       3374                4000.00    
       3375                4000.00    
       3376                4000.00    
       3377                4000.00    
       3378                4000.00    
       3379                4000.00    
       3380                4000.00    
       3381                4000.00    
       3382                4000.00    
       3383                4000.00    
       3384                4000.00    
       3385                4000.00    
       3386                4000.00    
       3387                4000.00    
       3388                4000.00    
       3389                4000.00    
       3390                4000.00    
       3391                4000.00    
       3392                4000.00    
       3393                4000.00    
       3394                4000.00    
       3395                4000.00    
       3396                4000.00    
       3397                4000.00    
       3398                4000.00    
       3399                4000.00    
       3400                4000.00    
       3401                4000.00    
       3402                4000.00    
       3403                4000.00    
       3404                4000.00    
       3405                4000.00    
       3406                4000.00    
       3407                4000.00    
       3408                4000.00    
       3409                4000.00    
       3410                4000.00    
       3411                4000.00    
       3412                4000.00    
       3413                4000.00    
       3414                4000.00    
       3415                4000.00    
       3416                4000.00    
       3417                4000.00    
       3418                4000.00    
       3419                4000.00    
       3420                4000.00    
       3421                4000.00    
       3422                4000.00    
       3423                4000.00    
       3424                4000.00    
       3425                4000.00    
       3426                4000.00    
       3427                4000.00    
       3428                4000.00    
       3429                4000.00    
       3430                4000.00    
       3431                4000.00    
       3432                4000.00    
       3433                4000.00    
       3434                4000.00    
       3435                4000.00    
       3436                4000.00    
       3437                4000.00    
       3438                4000.00    
       3439                4000.00    
       3440                4000.00    
       3441                4000.00    
       3442                4000.00    
       3443                4000.00    
       3444                4000.00    
       3445                4000.00    
       3446                4000.00    
       3447                4000.00    
       3448                4000.00    
       3449                4000.00    
       3450                4000.00    
       3451                4000.00    
       3452                4000.00    
       3453                4000.00    
       3454                4000.00    
       3455                4000.00    
       3456                4000.00    
       3457                4000.00    
       3458                4000.00    
       3459                4000.00    
       3460                4000.00    
       3461                4000.00    
       3462                4000.00    
       3463                4000.00    
       3464                4000.00    
       3465                4000.00    
       3466                4000.00    
       3467                4000.00    
       3468                4000.00    
       3469                4000.00    
       3470                4000.00    
       3471                4000.00    
       3472                4000.00    
       3473                4000.00    
       3474                4000.00    
       3475                4000.00    
       3476                4000.00    
       3477                4000.00    
       3478                4000.00    
       3479                4000.00    
       3480                4000.00    
       3481                4000.00    
       3482                4000.00    
       3483                4000.00    
       3484                4000.00    
       3485                4000.00    
       3486                4000.00    
       3487                4000.00    
       3488                4000.00    
       3489                4000.00    
       3490                4000.00    
       3491                4000.00    
       3492                4000.00    
       3493                4000.00    
       3494                4000.00    
       3495                4000.00    
       3496                4000.00    
       3497                4000.00    
       3498                4000.00    
       3499                4000.00    
       3500                4000.00    
       3501                4000.00    
       3502                4000.00    
       3503                4000.00    
       3504                4000.00    
       3505                4000.00    
       3506                4000.00    
       3507                4000.00    
       3508                4000.00    
       3509                4000.00    
       3510                4000.00    
       3511                4000.00    
       3512                4000.00    
       3513                4000.00    
       3514                4000.00    
       3515                4000.00    
       3516                4000.00    
       3517                4000.00    
       3518                4000.00    
       3519                4000.00    
       3520                4000.00    
       3521                4000.00    
       3522                4000.00    
       3523                4000.00    
       3524                4000.00    
       3525                4000.00    
       3526                4000.00    
       3527                4000.00    
       3528                4000.00    
       3529                4000.00    
       3530                4000.00    
       3531                4000.00    
       3532                4000.00    
       3533                4000.00    
       3534                4000.00    
       3535                4000.00    
       3536                4000.00    
       3537                4000.00    
       3538                4000.00    
       3539                4000.00    
       3540                4000.00    
       3541                4000.00    
       3542                4000.00    
       3543                4000.00    
       3544                4000.00    
       3545                4000.00    
       3546                4000.00    
       3547                4000.00    
       3548                4000.00    
       3549                4000.00    
       3550                4000.00    
       3551                4000.00    
       3552                4000.00    
       3553                4000.00    
       3554                4000.00    
       3555                4000.00    
       3556                4000.00    
       3557                4000.00    
       3558                4000.00    
       3559                4000.00    
       3560                4000.00    
       3561                4000.00    
       3562                4000.00    
       3563                4000.00    
       3564                4000.00    
       3565                4000.00    
       3566                4000.00    
       3567                4000.00    
       3568                4000.00    
       3569                4000.00    
       3570                4000.00    
       3571                4000.00    
       3572                4000.00    
       3573                4000.00    
       3574                4000.00    
       3575                4000.00    
       3576                4000.00    
       3577                4000.00    
       3578                4000.00    
       3579                4000.00    
       3580                4000.00    
       3581                4000.00    
       3582                4000.00    
       3583                4000.00    
       3584                4000.00    
       3585                4000.00    
       3586                4000.00    
       3587                4000.00    
       3588                4000.00    
       3589                4000.00    
       3590                4000.00    
       3591                4000.00    
       3592                4000.00    
       3593                4000.00    
       3594                4000.00    
       3595                4000.00    
       3596                4000.00    
       3597                4000.00    
       3598                4000.00    
       3599                4000.00    
       3600                4000.00    
       3601                4000.00    
       3602                4000.00    
       3603                4000.00    
       3604                4000.00    
       3605                4000.00    
       3606                4000.00    
       3607                4000.00    
       3608                4000.00    
       3609                4000.00    
       3610                4000.00    
       3611                4000.00    
       3612                4000.00    
       3613                4000.00    
       3614                4000.00    
       3615                4000.00    
       3616                4000.00    
       3617                4000.00    
       3618                4000.00    
       3619                4000.00    
       3620                4000.00    
       3621                4000.00    
       3622                4000.00    
       3623                4000.00    
       3624                4000.00    
       3625                4000.00    
       3626                4000.00    
       3627                4000.00    
       3628                4000.00    
       3629                4000.00    
       3630                4000.00    
       3631                4000.00    
       3632                4000.00    
       3633                4000.00    
       3634                4000.00    
       3635                4000.00    
       3636                4000.00    
       3637                4000.00    
       3638                4000.00    
       3639                4000.00    
       3640                4000.00    
       3641                4000.00    
       3642                4000.00    
       3643                4000.00    
       3644                4000.00    
       3645                4000.00    
       3646                4000.00    
       3647                4000.00    
       3648                4000.00    
       3649                4000.00    
       3650                4000.00    
       3651                4000.00    
       3652                4000.00    
       3653                4000.00    
       3654                4000.00    
       3655                4000.00    
       3656                4000.00    
       3657                4000.00    
       3658                4000.00    
       3659                4000.00    
       3660                4000.00    
       3661                4000.00    
       3662                4000.00    
       3663                4000.00    
       3664                4000.00    
       3665                4000.00    
       3666                4000.00    
       3667                4000.00    
       3668                4000.00    
       3669                4000.00    
       3670                4000.00    
       3671                4000.00    
       3672                4000.00    
       3673                4000.00    
       3674                4000.00    
       3675                4000.00    
       3676                4000.00    
       3677                4000.00    
       3678                4000.00    
       3679                4000.00    
       3680                4000.00    
       3681                4000.00    
       3682                4000.00    
       3683                4000.00    
       3684                4000.00    
       3685                4000.00    
       3686                4000.00    
       3687                4000.00    
       3688                4000.00    
       3689                4000.00    
       3690                4000.00    
       3691                4000.00    
       3692                4000.00    
       3693                4000.00    
       3694                4000.00    
       3695                4000.00    
       3696                4000.00    
       3697                4000.00    
       3698                4000.00    
       3699                4000.00    
       3700                4000.00    
       3701                4000.00    
       3702                4000.00    
       3703                4000.00    
       3704                4000.00    
       3705                4000.00    
       3706                4000.00    
       3707                4000.00    
       3708                4000.00    
       3709                4000.00    
       3710                4000.00    
       3711                4000.00    
       3712                4000.00    
       3713                4000.00    
       3714                4000.00    
       3715                4000.00    
       3716                4000.00    
       3717                4000.00    
       3718                4000.00    
       3719                4000.00    
       3720                4000.00    
       3721                4000.00    
       3722                4000.00    
       3723                4000.00    
       3724                4000.00    
       3725                4000.00    
       3726                4000.00    
       3727                4000.00    
       3728                4000.00    
       3729                4000.00    
       3730                4000.00    
       3731                4000.00    
       3732                4000.00    
       3733                4000.00    
       3734                4000.00    
       3735                4000.00    
       3736                4000.00    
       3737                4000.00    
       3738                4000.00    
       3739                4000.00    
       3740                4000.00    
       3741                4000.00    
       3742                4000.00    
       3743                4000.00    
       3744                4000.00    
       3745                4000.00    
       3746                4000.00    
       3747                4000.00    
       3748                4000.00    
       3749                4000.00    
       3750                4000.00    
       3751                4000.00    
       3752                4000.00    
       3753                4000.00    
       3754                4000.00    
       3755                4000.00    
       3756                4000.00    
       3757                4000.00    
       3758                4000.00    
       3759                4000.00    
       3760                4000.00    
       3761                4000.00    
       3762                4000.00    
       3763                4000.00    
       3764                4000.00    
       3765                4000.00    
       3766                4000.00    
       3767                4000.00    
       3768                4000.00    
       3769                4000.00    
       3770                4000.00    
       3771                4000.00    
       3772                4000.00    
       3773                4000.00    
       3774                4000.00    
       3775                4000.00    
       3776                4000.00    
       3777                4000.00    
       3778                4000.00    
       3779                4000.00    
       3780                4000.00    
       3781                4000.00    
       3782                4000.00    
       3783                4000.00    
       3784                4000.00    
       3785                4000.00    
       3786                4000.00    
       3787                4000.00    
       3788                4000.00    
       3789                4000.00    
       3790                4000.00    
       3791                4000.00    
       3792                4000.00    
       3793                4000.00    
       3794                4000.00    
       3795                4000.00    
       3796                4000.00    
       3797                4000.00    
       3798                4000.00    
       3799                4000.00    
       3800                4000.00    
       3801                4000.00    
       3802                4000.00    
       3803                4000.00    
       3804                4000.00    
       3805                4000.00    
       3806                4000.00    
       3807                4000.00    
       3808                4000.00    
       3809                4000.00    
       3810                4000.00    
       3811                4000.00    
       3812                4000.00    
       3813                4000.00    
       3814                4000.00    
       3815                4000.00    
       3816                4000.00    
       3817                4000.00    
       3818                4000.00    
       3819                4000.00    
       3820                4000.00    
       3821                4000.00    
       3822                4000.00    
       3823                4000.00    
       3824                4000.00    
       3825                4000.00    
       3826                4000.00    
       3827                4000.00    
       3828                4000.00    
       3829                4000.00    
       3830                4000.00    
       3831                4000.00    
       3832                4000.00    
       3833                4000.00    
       3834                4000.00    
       3835                4000.00    
       3836                4000.00    
       3837                4000.00    
       3838                4000.00    
       3839                4000.00    
       3840                4000.00    
       3841                4000.00    
       3842                4000.00    
       3843                4000.00    
       3844                4000.00    
       3845                4000.00    
       3846                4000.00    
       3847                4000.00    
       3848                4000.00    
       3849                4000.00    
       3850                4000.00    
       3851                4000.00    
       3852                4000.00    
       3853                4000.00    
       3854                4000.00    
       3855                4000.00    
       3856                4000.00    
       3857                4000.00    
       3858                4000.00    
       3859                4000.00    
       3860                4000.00    
       3861                4000.00    
       3862                4000.00    
       3863                4000.00    
       3864                4000.00    
       3865                4000.00    
       3866                4000.00    
       3867                4000.00    
       3868                4000.00    
       3869                4000.00    
       3870                4000.00    
       3871                4000.00    
       3872                4000.00    
       3873                4000.00    
       3874                4000.00    
       3875                4000.00    
       3876                4000.00    
       3877                4000.00    
       3878                4000.00    
       3879                4000.00    
       3880                4000.00    
       3881                4000.00    
       3882                4000.00    
       3883                4000.00    
       3884                4000.00    
       3885                4000.00    
       3886                4000.00    
       3887                4000.00    
       3888                4000.00    
       3889                4000.00    
       3890                4000.00    
       3891                4000.00    
       3892                4000.00    
       3893                4000.00    
       3894                4000.00    
       3895                4000.00    
       3896                4000.00    
       3897                4000.00    
       3898                4000.00    
       3899                4000.00    
       3900                4000.00    
       3901                4000.00    
       3902                4000.00    
       3903                4000.00    
       3904                4000.00    
       3905                4000.00    
       3906                4000.00    
       3907                4000.00    
       3908                4000.00    
       3909                4000.00    
       3910                4000.00    
       3911                4000.00    
       3912                4000.00    
       3913                4000.00    
       3914                4000.00    
       3915                4000.00    
       3916                4000.00    
       3917                4000.00    
       3918                4000.00    
       3919                4000.00    
       3920                4000.00    
       3921                4000.00    
       3922                4000.00    
       3923                4000.00    
       3924                4000.00    
       3925                4000.00    
       3926                4000.00    
       3927                4000.00    
       3928                4000.00    
       3929                4000.00    
       3930                4000.00    
       3931                4000.00    
       3932                4000.00    
       3933                4000.00    
       3934                4000.00    
       3935                4000.00    
       3936                4000.00    
       3937                4000.00    
       3938                4000.00    
       3939                4000.00    
       3940                4000.00    
       3941                4000.00    
       3942                4000.00    
       3943                4000.00    
       3944                4000.00    
       3945                4000.00    
       3946                4000.00    
       3947                4000.00    
       3948                4000.00    
       3949                4000.00    
       3950                4000.00    
       3951                4000.00    
       3952                4000.00    
       3953                4000.00    
       3954                4000.00    
       3955                4000.00    
       3956                4000.00    
       3957                4000.00    
       3958                4000.00    
       3959                4000.00    
       3960                4000.00    
       3961                4000.00    
       3962                4000.00    
       3963                4000.00    
       3964                4000.00    
       3965                4000.00    
       3966                4000.00    
       3967                4000.00    
       3968                4000.00    
       3969                4000.00    
       3970                4000.00    
       3971                4000.00    
       3972                4000.00    
       3973                4000.00    
       3974                4000.00    
       3975                4000.00    
       3976                4000.00    
       3977                4000.00    
       3978                4000.00    
       3979                4000.00    
       3980                4000.00    
       3981                4000.00    
       3982                4000.00    
       3983                4000.00    
       3984                4000.00    
       3985                4000.00    
       3986                4000.00    
       3987                4000.00    
       3988                4000.00    
       3989                4000.00    
       3990                4000.00    
       3991                4000.00    
       3992                4000.00    
       3993                4000.00    
       3994                4000.00    
       3995                4000.00    
       3996                4000.00    
       3997                4000.00    
       3998                4000.00    
       3999                4000.00    
       4000                4000.00    
       4001                4000.00    
       4002                4000.00    
       4003                4000.00    
       4004                4000.00    
       4005                4000.00    
       4006                4000.00    
       4007                4000.00    
       4008                4000.00    
       4009                4000.00    
       4010                4000.00    
       4011                4000.00    
       4012                4000.00    
       4013                4000.00    
       4014                4000.00    
       4015                4000.00    
       4016                4000.00    
       4017                4000.00    
       4018                4000.00    
       4019                4000.00    
       4020                4000.00    
       4021                4000.00    
       4022                4000.00    
       4023                4000.00    
       4024                4000.00    
       4025                4000.00    
       4026                4000.00    
       4027                4000.00    
       4028                4000.00    
       4029                4000.00    
       4030                4000.00    
       4031                4000.00    
       4032                4000.00    
       4033                4000.00    
       4034                4000.00    
       4035                4000.00    
       4036                4000.00    
       4037                4000.00    
       4038                4000.00    
       4039                4000.00    
       4040                4000.00    
       4041                4000.00    
       4042                4000.00    
       4043                4000.00    
       4044                4000.00    
       4045                4000.00    
       4046                4000.00    
       4047                4000.00    
       4048                4000.00    
       4049                4000.00    
       4050                4000.00    
       4051                4000.00    
       4052                4000.00    
       4053                4000.00    
       4054                4000.00    
       4055                4000.00    
       4056                4000.00    
       4057                4000.00    
       4058                4000.00    
       4059                4000.00    
       4060                4000.00    
       4061                4000.00    
       4062                4000.00    
       4063                4000.00    
       4064                4000.00    
       4065                4000.00    
       4066                4000.00    
       4067                4000.00    
       4068                4000.00    
       4069                4000.00    
       4070                4000.00    
       4071                4000.00    
       4072                4000.00    
       4073                4000.00    
       4074                4000.00    
       4075                4000.00    
       4076                4000.00    
       4077                4000.00    
       4078                4000.00    
       4079                4000.00    
       4080                4000.00    
       4081                4000.00    
       4082                4000.00    
       4083                4000.00    
       4084                4000.00    
       4085                4000.00    
       4086                4000.00    
       4087                4000.00    
       4088                4000.00    
       4089                4000.00    
       4090                4000.00    
       4091                4000.00    
       4092                4000.00    
       4093                4000.00    
       4094                4000.00    
       4095                4000.00    
       4096                4000.00    
       4097                4000.00    
       4098                4000.00    
       4099                4000.00    
       4100                4000.00    
       4101                4000.00    
       4102                4000.00    
       4103                4000.00    
       4104                4000.00    
       4105                4000.00    
       4106                4000.00    
       4107                4000.00    
       4108                4000.00    
       4109                4000.00    
       4110                4000.00    
       4111                4000.00    
       4112                4000.00    
       4113                4000.00    
       4114                4000.00    
       4115                4000.00    
       4116                4000.00    
       4117                4000.00    
       4118                4000.00    
       4119                4000.00    
       4120                4000.00    
       4121                4000.00    
       4122                4000.00    
       4123                4000.00    
       4124                4000.00    
       4125                4000.00    
       4126                4000.00    
       4127                4000.00    
       4128                4000.00    
       4129                4000.00    
       4130                4000.00    
       4131                4000.00    
       4132                4000.00    
       4133                4000.00    
       4134                4000.00    
       4135                4000.00    
       4136                4000.00    
       4137                4000.00    
       4138                4000.00    
       4139                4000.00    
       4140                4000.00    
       4141                4000.00    
       4142                4000.00    
       4143                4000.00    
       4144                4000.00    
       4145                4000.00    
       4146                4000.00    
       4147                4000.00    
       4148                4000.00    
       4149                4000.00    
       4150                4000.00    
       4151                4000.00    
       4152                4000.00    
       4153                4000.00    
       4154                4000.00    
       4155                4000.00    
       4156                4000.00    
       4157                4000.00    
       4158                4000.00    
       4159                4000.00    
       4160                4000.00    
       4161                4000.00    
       4162                4000.00    
       4163                4000.00    
       4164                4000.00    
       4165                4000.00    
       4166                4000.00    
       4167                4000.00    
       4168                4000.00    
       4169                4000.00    
       4170                4000.00    
       4171                4000.00    
       4172                4000.00    
       4173                4000.00    
       4174                4000.00    
       4175                4000.00    
       4176                4000.00    
       4177                4000.00    
       4178                4000.00    
       4179                4000.00    
       4180                4000.00    
       4181                4000.00    
       4182                4000.00    
       4183                4000.00    
       4184                4000.00    
       4185                4000.00    
       4186                4000.00    
       4187                4000.00    
       4188                4000.00    
       4189                4000.00    
       4190                4000.00    
       4191                4000.00    
       4192                4000.00    
       4193                4000.00    
       4194                4000.00    
       4195                4000.00    
       4196                4000.00    
       4197                4000.00    
       4198                4000.00    
       4199                4000.00    
       4200                4000.00    
       4201                4000.00    
       4202                4000.00    
       4203                4000.00    
       4204                4000.00    
       4205                4000.00    
       4206                4000.00    
       4207                4000.00    
       4208                4000.00    
       4209                4000.00    
       4210                4000.00    
       4211                4000.00    
       4212                4000.00    
       4213                4000.00    
       4214                4000.00    
       4215                4000.00    
       4216                4000.00    
       4217                4000.00    
       4218                4000.00    
       4219                4000.00    
       4220                4000.00    
       4221                4000.00    
       4222                4000.00    
       4223                4000.00    
       4224                4000.00    
       4225                4000.00    
       4226                4000.00    
       4227                4000.00    
       4228                4000.00    
       4229                4000.00    
       4230                4000.00    
       4231                4000.00    
       4232                4000.00    
       4233                4000.00    
       4234                4000.00    
       4235                4000.00    
       4236                4000.00    
       4237                4000.00    
       4238                4000.00    
       4239                4000.00    
       4240                4000.00    
       4241                4000.00    
       4242                4000.00    
       4243                4000.00    
       4244                4000.00    
       4245                4000.00    
       4246                4000.00    
       4247                4000.00    
       4248                4000.00    
       4249                4000.00    
       4250                4000.00    
       4251                4000.00    
       4252                4000.00    
       4253                4000.00    
       4254                4000.00    
       4255                4000.00    
       4256                4000.00    
       4257                4000.00    
       4258                4000.00    
       4259                4000.00    
       4260                4000.00    
       4261                4000.00    
       4262                4000.00    
       4263                4000.00    
       4264                4000.00    
       4265                4000.00    
       4266                4000.00    
       4267                4000.00    
       4268                4000.00    
       4269                4000.00    
       4270                4000.00    
       4271                4000.00    
       4272                4000.00    
       4273                4000.00    
       4274                4000.00    
       4275                4000.00    
       4276                4000.00    
       4277                4000.00    
       4278                4000.00    
       4279                4000.00    
       4280                4000.00    
       4281                4000.00    
       4282                4000.00    
       4283                4000.00    
       4284                4000.00    
       4285                4000.00    
       4286                4000.00    
       4287                4000.00    
       4288                4000.00    
       4289                4000.00    
       4290                4000.00    
       4291                4000.00    
       4292                4000.00    
       4293                4000.00    
       4294                4000.00    
       4295                4000.00    
       4296                4000.00    
       4297                4000.00    
       4298                4000.00    
       4299                4000.00    
       4300                4000.00    
       4301                4000.00    
       4302                4000.00    
       4303                4000.00    
       4304                4000.00    
       4305                4000.00    
       4306                4000.00    
       4307                4000.00    
       4308                4000.00    
       4309                4000.00    
       4310                4000.00    
       4311                4000.00    
       4312                4000.00    
       4313                4000.00    
       4314                4000.00    
       4315                4000.00    
       4316                4000.00    
       4317                4000.00    
       4318                4000.00    
       4319                4000.00    
       4320                4000.00    
       4321                4000.00    
       4322                4000.00    
       4323                4000.00    
       4324                4000.00    
       4325                4000.00    
       4326                4000.00    
       4327                4000.00    
       4328                4000.00    
       4329                4000.00    
       4330                4000.00    
       4331                4000.00    
       4332                4000.00    
       4333                4000.00    
       4334                4000.00    
       4335                4000.00    
       4336                4000.00    
       4337                4000.00    
       4338                4000.00    
       4339                4000.00    
       4340                4000.00    
       4341                4000.00    
       4342                4000.00    
       4343                4000.00    
       4344                4000.00    
       4345                4000.00    
       4346                4000.00    
       4347                4000.00    
       4348                4000.00    
       4349                4000.00    
       4350                4000.00    
       4351                4000.00    
       4352                4000.00    
       4353                4000.00    
       4354                4000.00    
       4355                4000.00    
       4356                4000.00    
       4357                4000.00    
       4358                4000.00    
       4359                4000.00    
       4360                4000.00    
       4361                4000.00    
       4362                4000.00    
       4363                4000.00    
       4364                4000.00    
       4365                4000.00    
       4366                4000.00    
       4367                4000.00    
       4368                4000.00    
       4369                4000.00    
       4370                4000.00    
       4371                4000.00    
       4372                4000.00    
       4373                4000.00    
       4374                4000.00    
       4375                4000.00    
       4376                4000.00    
       4377                4000.00    
       4378                4000.00    
       4379                4000.00    
       4380                4000.00    
       4381                4000.00    
       4382                4000.00    
       4383                4000.00    
       4384                4000.00    
       4385                4000.00    
       4386                4000.00    
       4387                4000.00    
       4388                4000.00    
       4389                4000.00    
       4390                4000.00    
       4391                4000.00    
       4392                4000.00    
       4393                4000.00    
       4394                4000.00    
       4395                4000.00    
       4396                4000.00    
       4397                4000.00    
       4398                4000.00    
       4399                4000.00    
       4400                4000.00    
       4401                4000.00    
       4402                4000.00    
       4403                4000.00    
       4404                4000.00    
       4405                4000.00    
       4406                4000.00    
       4407                4000.00    
       4408                4000.00    
       4409                4000.00    
       4410                4000.00    
       4411                4000.00    
       4412                4000.00    
       4413                4000.00    
       4414                4000.00    
       4415                4000.00    
       4416                4000.00    
       4417                4000.00    
       4418                4000.00    
       4419                4000.00    
       4420                4000.00    
       4421                4000.00    
       4422                4000.00    
       4423                4000.00    
       4424                4000.00    
       4425                4000.00    
       4426                4000.00    
       4427                4000.00    
       4428                4000.00    
       4429                4000.00    
       4430                4000.00    
       4431                4000.00    
       4432                4000.00    
       4433                4000.00    
       4434                4000.00    
       4435                4000.00    
       4436                4000.00    
       4437                4000.00    
       4438                4000.00    
       4439                4000.00    
       4440                4000.00    
       4441                4000.00    
       4442                4000.00    
       4443                4000.00    
       4444                4000.00    
       4445                4000.00    
       4446                4000.00    
       4447                4000.00    
       4448                4000.00    
       4449                4000.00    
       4450                4000.00    
       4451                4000.00    
       4452                4000.00    
       4453                4000.00    
       4454                4000.00    
       4455                4000.00    
       4456                4000.00    
       4457                4000.00    
       4458                4000.00    
       4459                4000.00    
       4460                4000.00    
       4461                4000.00    
       4462                4000.00    
       4463                4000.00    
       4464                4000.00    
       4465                4000.00    
       4466                4000.00    
       4467                4000.00    
       4468                4000.00    
       4469                4000.00    
       4470                4000.00    
       4471                4000.00    
       4472                4000.00    
       4473                4000.00    
       4474                4000.00    
       4475                4000.00    
       4476                4000.00    
       4477                4000.00    
       4478                4000.00    
       4479                4000.00    
       4480                4000.00    
       4481                4000.00    
       4482                4000.00    
       4483                4000.00    
       4484                4000.00    
       4485                4000.00    
       4486                4000.00    
       4487                4000.00    
       4488                4000.00    
       4489                4000.00    
       4490                4000.00    
       4491                4000.00    
       4492                4000.00    
       4493                4000.00    
       4494                4000.00    
       4495                4000.00    
       4496                4000.00    
       4497                4000.00    
       4498                4000.00    
       4499                4000.00    
       4500                4000.00    
       4501                4000.00    
       4502                4000.00    
       4503                4000.00    
       4504                4000.00    
       4505                4000.00    
       4506                4000.00    
       4507                4000.00    
       4508                4000.00    
       4509                4000.00    
       4510                4000.00    
       4511                4000.00    
       4512                4000.00    
       4513                4000.00    
       4514                4000.00    
       4515                4000.00    
       4516                4000.00    
       4517                4000.00    
       4518                4000.00    
       4519                4000.00    
       4520                4000.00    
       4521                4000.00    
       4522                4000.00    
       4523                4000.00    
       4524                4000.00    
       4525                4000.00    
       4526                4000.00    
       4527                4000.00    
       4528                4000.00    
       4529                4000.00    
       4530                4000.00    
       4531                4000.00    
       4532                4000.00    
       4533                4000.00    
       4534                4000.00    
       4535                4000.00    
       4536                4000.00    
       4537                4000.00    
       4538                4000.00    
       4539                4000.00    
       4540                4000.00    
       4541                4000.00    
       4542                4000.00    
       4543                4000.00    
       4544                4000.00    
       4545                4000.00    
       4546                4000.00    
       4547                4000.00    
       4548                4000.00    
       4549                4000.00    
       4550                4000.00    
       4551                4000.00    
       4552                4000.00    
       4553                4000.00    
       4554                4000.00    
       4555                4000.00    
       4556                4000.00    
       4557                4000.00    
       4558                4000.00    
       4559                4000.00    
       4560                4000.00    
       4561                4000.00    
       4562                4000.00    
       4563                4000.00    
       4564                4000.00    
       4565                4000.00    
       4566                4000.00    
       4567                4000.00    
       4568                4000.00    
       4569                4000.00    
       4570                4000.00    
       4571                4000.00    
       4572                4000.00    
       4573                4000.00    
       4574                4000.00    
       4575                4000.00    
       4576                4000.00    
       4577                4000.00    
       4578                4000.00    
       4579                4000.00    
       4580                4000.00    
       4581                4000.00    
       4582                4000.00    
       4583                4000.00    
       4584                4000.00    
       4585                4000.00    
       4586                4000.00    
       4587                4000.00    
       4588                4000.00    
       4589                4000.00    
       4590                4000.00    
       4591                4000.00    
       4592                4000.00    
       4593                4000.00    
       4594                4000.00    
       4595                4000.00    
       4596                4000.00    
       4597                4000.00    
       4598                4000.00    
       4599                4000.00    
       4600                4000.00    
       4601                4000.00    
       4602                4000.00    
       4603                4000.00    
       4604                4000.00    
       4605                4000.00    
       4606                4000.00    
       4607                4000.00    
       4608                4000.00    
       4609                4000.00    
       4610                4000.00    
       4611                4000.00    
       4612                4000.00    
       4613                4000.00    
       4614                4000.00    
       4615                4000.00    
       4616                4000.00    
       4617                4000.00    
       4618                4000.00    
       4619                4000.00    
       4620                4000.00    
       4621                4000.00    
       4622                4000.00    
       4623                4000.00    
       4624                4000.00    
       4625                4000.00    
       4626                4000.00    
       4627                4000.00    
       4628                4000.00    
       4629                4000.00    
       4630                4000.00    
       4631                4000.00    
       4632                4000.00    
       4633                4000.00    
       4634                4000.00    
       4635                4000.00    
       4636                4000.00    
       4637                4000.00    
       4638                4000.00    
       4639                4000.00    
       4640                4000.00    
       4641                4000.00    
       4642                4000.00    
       4643                4000.00    
       4644                4000.00    
       4645                4000.00    
       4646                4000.00    
       4647                4000.00    
       4648                4000.00    
       4649                4000.00    
       4650                4000.00    
       4651                4000.00    
       4652                4000.00    
       4653                4000.00    
       4654                4000.00    
       4655                4000.00    
       4656                4000.00    
       4657                4000.00    
       4658                4000.00    
       4659                4000.00    
       4660                4000.00    
       4661                4000.00    
       4662                4000.00    
       4663                4000.00    
       4664                4000.00    
       4665                4000.00    
       4666                4000.00    
       4667                4000.00    
       4668                4000.00    
       4669                4000.00    
       4670                4000.00    
       4671                4000.00    
       4672                4000.00    
       4673                4000.00    
       4674                4000.00    
       4675                4000.00    
       4676                4000.00    
       4677                4000.00    
       4678                4000.00    
       4679                4000.00    
       4680                4000.00    
       4681                4000.00    
       4682                4000.00    
       4683                4000.00    
       4684                4000.00    
       4685                4000.00    
       4686                4000.00    
       4687                4000.00    
       4688                4000.00    
       4689                4000.00    
       4690                4000.00    
       4691                4000.00    
       4692                4000.00    
       4693                4000.00    
       4694                4000.00    
       4695                4000.00    
       4696                4000.00    
       4697                4000.00    
       4698                4000.00    
       4699                4000.00    
       4700                4000.00    
       4701                4000.00    
       4702                4000.00    
       4703                4000.00    
       4704                4000.00    
       4705                4000.00    
       4706                4000.00    
       4707                4000.00    
       4708                4000.00    
       4709                4000.00    
       4710                4000.00    
       4711                4000.00    
       4712                4000.00    
       4713                4000.00    
       4714                4000.00    
       4715                4000.00    
       4716                4000.00    
       4717                4000.00    
       4718                4000.00    
       4719                4000.00    
       4720                4000.00    
       4721                4000.00    
       4722                4000.00    
       4723                4000.00    
       4724                4000.00    
       4725                4000.00    
       4726                4000.00    
       4727                4000.00    
       4728                4000.00    
       4729                4000.00    
       4730                4000.00    
       4731                4000.00    
       4732                4000.00    
       4733                4000.00    
       4734                4000.00    
       4735                4000.00    
       4736                4000.00    
       4737                4000.00    
       4738                4000.00    
       4739                4000.00    
       4740                4000.00    
       4741                4000.00    
       4742                4000.00    
       4743                4000.00    
       4744                4000.00    
       4745                4000.00    
       4746                4000.00    
       4747                4000.00    
       4748                4000.00    
       4749                4000.00    
       4750                4000.00    
       4751                4000.00    
       4752                4000.00    
       4753                4000.00    
       4754                4000.00    
       4755                4000.00    
       4756                4000.00    
       4757                4000.00    
       4758                4000.00    
       4759                4000.00    
       4760                4000.00    
       4761                4000.00    
       4762                4000.00    
       4763                4000.00    
       4764                4000.00    
       4765                4000.00    
       4766                4000.00    
       4767                4000.00    
       4768                4000.00    
       4769                4000.00    
       4770                4000.00    
       4771                4000.00    
       4772                4000.00    
       4773                4000.00    
       4774                4000.00    
       4775                4000.00    
       4776                4000.00    
       4777                4000.00    
       4778                4000.00    
       4779                4000.00    
       4780                4000.00    
       4781                4000.00    
       4782                4000.00    
       4783                4000.00    
       4784                4000.00    
       4785                4000.00    
       4786                4000.00    
       4787                4000.00    
       4788                4000.00    
       4789                4000.00    
       4790                4000.00    
       4791                4000.00    
       4792                4000.00    
       4793                4000.00    
       4794                4000.00    
       4795                4000.00    
       4796                4000.00    
       4797                4000.00    
       4798                4000.00    
       4799                4000.00    
       4800                4000.00    
       4801                4000.00    
       4802                4000.00    
       4803                4000.00    
       4804                4000.00    
       4805                4000.00    
       4806                4000.00    
       4807                4000.00    
       4808                4000.00    
       4809                4000.00    
       4810                4000.00    
       4811                4000.00    
       4812                4000.00    
       4813                4000.00    
       4814                4000.00    
       4815                4000.00    
       4816                4000.00    
       4817                4000.00    
       4818                4000.00    
       4819                4000.00    
       4820                4000.00    
       4821                4000.00    
       4822                4000.00    
       4823                4000.00    
       4824                4000.00    
       4825                4000.00    
       4826                4000.00    
       4827                4000.00    
       4828                4000.00    
       4829                4000.00    
       4830                4000.00    
       4831                4000.00    
       4832                4000.00    
       4833                4000.00    
       4834                4000.00    
       4835                4000.00    
       4836                4000.00    
       4837                4000.00    
       4838                4000.00    
       4839                4000.00    
       4840                4000.00    
       4841                4000.00    
       4842                4000.00    
       4843                4000.00    
       4844                4000.00    
       4845                4000.00    
       4846                4000.00    
       4847                4000.00    
       4848                4000.00    
       4849                4000.00    
       4850                4000.00    
       4851                4000.00    
       4852                4000.00    
       4853                4000.00    
       4854                4000.00    
       4855                4000.00    
       4856                4000.00    
       4857                4000.00    
       4858                4000.00    
       4859                4000.00    
       4860                4000.00    
       4861                4000.00    
       4862                4000.00    
       4863                4000.00    
       4864                4000.00    
       4865                4000.00    
       4866                4000.00    
       4867                4000.00    
       4868                4000.00    
       4869                4000.00    
       4870                4000.00    
       4871                4000.00    
       4872                4000.00    
       4873                4000.00    
       4874                4000.00    
       4875                4000.00    
       4876                4000.00    
       4877                4000.00    
       4878                4000.00    
       4879                4000.00    
       4880                4000.00    
       4881                4000.00    
       4882                4000.00    
       4883                4000.00    
       4884                4000.00    
       4885                4000.00    
       4886                4000.00    
       4887                4000.00    
       4888                4000.00    
       4889                4000.00    
       4890                4000.00    
       4891                4000.00    
       4892                4000.00    
       4893                4000.00    
       4894                4000.00    
       4895                4000.00    
       4896                4000.00    
       4897                4000.00    
       4898                4000.00    
       4899                4000.00    
       4900                4000.00    
       4901                4000.00    
       4902                4000.00    
       4903                4000.00    
       4904                4000.00    
       4905                4000.00    
       4906                4000.00    
       4907                4000.00    
       4908                4000.00    
       4909                4000.00    
       4910                4000.00    
       4911                4000.00    
       4912                4000.00    
       4913                4000.00    
       4914                4000.00    
       4915                4000.00    
       4916                4000.00    
       4917                4000.00    
       4918                4000.00    
       4919                4000.00    
       4920                4000.00    
       4921                4000.00    
       4922                4000.00    
       4923                4000.00    
       4924                4000.00    
       4925                4000.00    
       4926                4000.00    
       4927                4000.00    
       4928                4000.00    
       4929                4000.00    
       4930                4000.00    
       4931                4000.00    
       4932                4000.00    
       4933                4000.00    
       4934                4000.00    
       4935                4000.00    
       4936                4000.00    
       4937                4000.00    
       4938                4000.00    
       4939                4000.00    
       4940                4000.00    
       4941                4000.00    
       4942                4000.00    
       4943                4000.00    
       4944                4000.00    
       4945                4000.00    
       4946                4000.00    
       4947                4000.00    
       4948                4000.00    
       4949                4000.00    
       4950                4000.00    
       4951                4000.00    
       4952                4000.00    
       4953                4000.00    
       4954                4000.00    
       4955                4000.00    
       4956                4000.00    
       4957                4000.00    
       4958                4000.00    
       4959                4000.00    
       4960                4000.00    
       4961                4000.00    
       4962                4000.00    
       4963                4000.00    
       4964                4000.00    
       4965                4000.00    
       4966                4000.00    
       4967                4000.00    
       4968                4000.00    
       4969                4000.00    
       4970                4000.00    
       4971                4000.00    
       4972                4000.00    
       4973                4000.00    
       4974                4000.00    
       4975                4000.00    
       4976                4000.00    
       4977                4000.00    
       4978                4000.00    
       4979                4000.00    
       4980                4000.00    
       4981                4000.00    
       4982                4000.00    
       4983                4000.00    
       4984                4000.00    
       4985                4000.00    
       4986                4000.00    
       4987                4000.00    
       4988                4000.00    
       4989                4000.00    
       4990                4000.00    
       4991                4000.00    
       4992                4000.00    
       4993                4000.00    
       4994                4000.00    
       4995                4000.00    
       4996                4000.00    
       4997                4000.00    
       4998                4000.00    
       4999                4000.00    
       5000                4000.00    
       5001                4000.00    
       5002                4000.00    
       5003                4000.00    
       5004                4000.00    
       5005                4000.00    
       5006                4000.00    
       5007                4000.00    
       5008                4000.00    
       5009                4000.00    
       5010                4000.00    
       5011                4000.00    
       5012                4000.00    
       5013                4000.00    
       5014                4000.00    
       5015                4000.00    
       5016                4000.00    
       5017                4000.00    
       5018                4000.00    
       5019                4000.00    
       5020                4000.00    
       5021                4000.00    
       5022                4000.00    
       5023                4000.00    
       5024                4000.00    
       5025                4000.00    
       5026                4000.00    
       5027                4000.00    
       5028                4000.00    
       5029                4000.00    
       5030                4000.00    
       5031                4000.00    
       5032                4000.00    
       5033                4000.00    
       5034                4000.00    
       5035                4000.00    
       5036                4000.00    
       5037                4000.00    
       5038                4000.00    
       5039                4000.00    
       5040                4000.00    
       5041                4000.00    
       5042                4000.00    
       5043                4000.00    
       5044                4000.00    
       5045                4000.00    
       5046                4000.00    
       5047                4000.00    
       5048                4000.00    
       5049                4000.00    
       5050                4000.00    
       5051                4000.00    
       5052                4000.00    
       5053                4000.00    
       5054                4000.00    
       5055                4000.00    
       5056                4000.00    
       5057                4000.00    
       5058                4000.00    
       5059                4000.00    
       5060                4000.00    
       5061                4000.00    
       5062                4000.00    
       5063                4000.00    
       5064                4000.00    
       5065                4000.00    
       5066                4000.00    
       5067                4000.00    
       5068                4000.00    
       5069                4000.00    
       5070                4000.00    
       5071                4000.00    
       5072                4000.00    
       5073                4000.00    
       5074                4000.00    
       5075                4000.00    
       5076                4000.00    
       5077                4000.00    
       5078                4000.00    
       5079                4000.00    
       5080                4000.00    
       5081                4000.00    
       5082                4000.00    
       5083                4000.00    
       5084                4000.00    
       5085                4000.00    
       5086                4000.00    
       5087                4000.00    
       5088                4000.00    
       5089                4000.00    
       5090                4000.00    
       5091                4000.00    
       5092                4000.00    
       5093                4000.00    
       5094                4000.00    
       5095                4000.00    
       5096                4000.00    
       5097                4000.00    
       5098                4000.00    
       5099                4000.00    
       5100                4000.00    
       5101                4000.00    
       5102                4000.00    
       5103                4000.00    
       5104                4000.00    
       5105                4000.00    
       5106                4000.00    
       5107                4000.00    
       5108                4000.00    
       5109                4000.00    
       5110                4000.00    
       5111                4000.00    
       5112                4000.00    
       5113                4000.00    
       5114                4000.00    
       5115                4000.00    
       5116                4000.00    
       5117                4000.00    
       5118                4000.00    
       5119                4000.00    
       5120                4000.00    
       5121                4000.00    
       5122                4000.00    
       5123                4000.00    
       5124                4000.00    
       5125                4000.00    
       5126                4000.00    
       5127                4000.00    
       5128                4000.00    
       5129                4000.00    
       5130                4000.00    
       5131                4000.00    
       5132                4000.00    
       5133                4000.00    
       5134                4000.00    
       5135                4000.00    
       5136                4000.00    
       5137                4000.00    
       5138                4000.00    
       5139                4000.00    
       5140                4000.00    
       5141                4000.00    
       5142                4000.00    
       5143                4000.00    
       5144                4000.00    
       5145                4000.00    
       5146                4000.00    
       5147                4000.00    
       5148                4000.00    
       5149                4000.00    
       5150                4000.00    
       5151                4000.00    
       5152                4000.00    
       5153                4000.00    
       5154                4000.00    
       5155                4000.00    
       5156                4000.00    
       5157                4000.00    
       5158                4000.00    
       5159                4000.00    
       5160                4000.00    
       5161                4000.00    
       5162                4000.00    
       5163                4000.00    
       5164                4000.00    
       5165                4000.00    
       5166                4000.00    
       5167                4000.00    
       5168                4000.00    
       5169                4000.00    
       5170                4000.00    
       5171                4000.00    
       5172                4000.00    
       5173                4000.00    
       5174                4000.00    
       5175                4000.00    
       5176                4000.00    
       5177                4000.00    
       5178                4000.00    
       5179                4000.00    
       5180                4000.00    
       5181                4000.00    
       5182                4000.00    
       5183                4000.00    
       5184                4000.00    
       5185                4000.00    
       5186                4000.00    
       5187                4000.00    
       5188                4000.00    
       5189                4000.00    
       5190                4000.00    
       5191                4000.00    
       5192                4000.00    
       5193                4000.00    
       5194                4000.00    
       5195                4000.00    
       5196                4000.00    
       5197                4000.00    
       5198                4000.00    
       5199                4000.00    
       5200                4000.00    
       5201                4000.00    
       5202                4000.00    
       5203                4000.00    
       5204                4000.00    
       5205                4000.00    
       5206                4000.00    
       5207                4000.00    
       5208                4000.00    
       5209                4000.00    
       5210                4000.00    
       5211                4000.00    
       5212                4000.00    
       5213                4000.00    
       5214                4000.00    
       5215                4000.00    
       5216                4000.00    
       5217                4000.00    
       5218                4000.00    
       5219                4000.00    
       5220                4000.00    
       5221                4000.00    
       5222                4000.00    
       5223                4000.00    
       5224                4000.00    
       5225                4000.00    
       5226                4000.00    
       5227                4000.00    
       5228                4000.00    
       5229                4000.00    
       5230                4000.00    
       5231                4000.00    
       5232                4000.00    
       5233                4000.00    
       5234                4000.00    
       5235                4000.00    
       5236                4000.00    
       5237                4000.00    
       5238                4000.00    
       5239                4000.00    
       5240                4000.00    
       5241                4000.00    
       5242                4000.00    
       5243                4000.00    
       5244                4000.00    
       5245                4000.00    
       5246                4000.00    
       5247                4000.00    
       5248                4000.00    
       5249                4000.00    
       5250                4000.00    
       5251                4000.00    
       5252                4000.00    
       5253                4000.00    
       5254                4000.00    
       5255                4000.00    
       5256                4000.00    
       5257                4000.00    
       5258                4000.00    
       5259                4000.00    
       5260                4000.00    
       5261                4000.00    
       5262                4000.00    
       5263                4000.00    
       5264                4000.00    
       5265                4000.00    
       5266                4000.00    
       5267                4000.00    
       5268                4000.00    
       5269                4000.00    
       5270                4000.00    
       5271                4000.00    
       5272                4000.00    
       5273                4000.00    
       5274                4000.00    
       5275                4000.00    
       5276                4000.00    
       5277                4000.00    
       5278                4000.00    
       5279                4000.00    
       5280                4000.00    
       5281                4000.00    
       5282                4000.00    
       5283                4000.00    
       5284                4000.00    
       5285                4000.00    
       5286                4000.00    
       5287                4000.00    
       5288                4000.00    
       5289                4000.00    
       5290                4000.00    
       5291                4000.00    
       5292                4000.00    
       5293                4000.00    
       5294                4000.00    
       5295                4000.00    
       5296                4000.00    
       5297                4000.00    
       5298                4000.00    
       5299                4000.00    
       5300                4000.00    
       5301                4000.00    
       5302                4000.00    
       5303                4000.00    
       5304                4000.00    
       5305                4000.00    
       5306                4000.00    
       5307                4000.00    
       5308                4000.00    
       5309                4000.00    
       5310                4000.00    
       5311                4000.00    
       5312                4000.00    
       5313                4000.00    
       5314                4000.00    
       5315                4000.00    
       5316                4000.00    
       5317                4000.00    
       5318                4000.00    
       5319                4000.00    
       5320                4000.00    
       5321                4000.00    
       5322                4000.00    
       5323                4000.00    
       5324                4000.00    
       5325                4000.00    
       5326                4000.00    
       5327                4000.00    
       5328                4000.00    
       5329                4000.00    
       5330                4000.00    
       5331                4000.00    
       5332                4000.00    
       5333                4000.00    
       5334                4000.00    
       5335                4000.00    
       5336                4000.00    
       5337                4000.00    
       5338                4000.00    
       5339                4000.00    
       5340                4000.00    
       5341                4000.00    
       5342                4000.00    
       5343                4000.00    
       5344                4000.00    
       5345                4000.00    
       5346                4000.00    
       5347                4000.00    
       5348                4000.00    
       5349                4000.00    
       5350                4000.00    
       5351                4000.00    
       5352                4000.00    
       5353                4000.00    
       5354                4000.00    
       5355                4000.00    
       5356                4000.00    
       5357                4000.00    
       5358                4000.00    
       5359                4000.00    
       5360                4000.00    
       5361                4000.00    
       5362                4000.00    
       5363                4000.00    
       5364                4000.00    
       5365                4000.00    
       5366                4000.00    
       5367                4000.00    
       5368                4000.00    
       5369                4000.00    
       5370                4000.00    
       5371                4000.00    
       5372                4000.00    
       5373                4000.00    
       5374                4000.00    
       5375                4000.00    
       5376                4000.00    
       5377                4000.00    
       5378                4000.00    
       5379                4000.00    
       5380                4000.00    
       5381                4000.00    
       5382                4000.00    
       5383                4000.00    
       5384                4000.00    
       5385                4000.00    
       5386                4000.00    
       5387                4000.00    
       5388                4000.00    
       5389                4000.00    
       5390                4000.00    
       5391                4000.00    
       5392                4000.00    
       5393                4000.00    
       5394                4000.00    
       5395                4000.00    
       5396                4000.00    
       5397                4000.00    
       5398                4000.00    
       5399                4000.00    
       5400                4000.00    
       5401                4000.00    
       5402                4000.00    
       5403                4000.00    
       5404                4000.00    
       5405                4000.00    
       5406                4000.00    
       5407                4000.00    
       5408                4000.00    
       5409                4000.00    
       5410                4000.00    
       5411                4000.00    
       5412                4000.00    
       5413                4000.00    
       5414                4000.00    
       5415                4000.00    
       5416                4000.00    
       5417                4000.00    
       5418                4000.00    
       5419                4000.00    
       5420                4000.00    
       5421                4000.00    
       5422                4000.00    
       5423                4000.00    
       5424                4000.00    
       5425                4000.00    
       5426                4000.00    
       5427                4000.00    
       5428                4000.00    
       5429                4000.00    
       5430                4000.00    
       5431                4000.00    
       5432                4000.00    
       5433                4000.00    
       5434                4000.00    
       5435                4000.00    
       5436                4000.00    
       5437                4000.00    
       5438                4000.00    
       5439                4000.00    
       5440                4000.00    
       5441                4000.00    
       5442                4000.00    
       5443                4000.00    
       5444                4000.00    
       5445                4000.00    
       5446                4000.00    
       5447                4000.00    
       5448                4000.00    
       5449                4000.00    
       5450                4000.00    
       5451                4000.00    
       5452                4000.00    
       5453                4000.00    
       5454                4000.00    
       5455                4000.00    
       5456                4000.00    
       5457                4000.00    
       5458                4000.00    
       5459                4000.00    
       5460                4000.00    
       5461                4000.00    
       5462                4000.00    
       5463                4000.00    
       5464                4000.00    
       5465                4000.00    
       5466                4000.00    
       5467                4000.00    
       5468                4000.00    
       5469                4000.00    
       5470                4000.00    
       5471                4000.00    
       5472                4000.00    
       5473                4000.00    
       5474                4000.00    
       5475                4000.00    
       5476                4000.00    
       5477                4000.00    
       5478                4000.00    
       5479                4000.00    
       5480                4000.00    
       5481                4000.00    
       5482                4000.00    
       5483                4000.00    
       5484                4000.00    
       5485                4000.00    
       5486                4000.00    
       5487                4000.00    
       5488                4000.00    
       5489                4000.00    
       5490                4000.00    
       5491                4000.00    
       5492                4000.00    
       5493                4000.00    
       5494                4000.00    
       5495                4000.00    
       5496                4000.00    
       5497                4000.00    
       5498                4000.00    
       5499                4000.00    
       5500                4000.00    
       5501                4000.00    
       5502                4000.00    
       5503                4000.00    
       5504                4000.00    
       5505                4000.00    
       5506                4000.00    
       5507                4000.00    
       5508                4000.00    
       5509                4000.00    
       5510                4000.00    
       5511                4000.00    
       5512                4000.00    
       5513                4000.00    
       5514                4000.00    
       5515                4000.00    
       5516                4000.00    
       5517                4000.00    
       5518                4000.00    
       5519                4000.00    
       5520                4000.00    
       5521                4000.00    
       5522                4000.00    
       5523                4000.00    
       5524                4000.00    
       5525                4000.00    
       5526                4000.00    
       5527                4000.00    
       5528                4000.00    
       5529                4000.00    
       5530                4000.00    
       5531                4000.00    
       5532                4000.00    
       5533                4000.00    
       5534                4000.00    
       5535                4000.00    
       5536                4000.00    
       5537                4000.00    
       5538                4000.00    
       5539                4000.00    
       5540                4000.00    
       5541                4000.00    
       5542                4000.00    
       5543                4000.00    
       5544                4000.00    
       5545                4000.00    
       5546                4000.00    
       5547                4000.00    
       5548                4000.00    
       5549                4000.00    
       5550                4000.00    
       5551                4000.00    
       5552                4000.00    
       5553                4000.00    
       5554                4000.00    
       5555                4000.00    
       5556                4000.00    
       5557                4000.00    
       5558                4000.00    
       5559                4000.00    
       5560                4000.00    
       5561                4000.00    
       5562                4000.00    
       5563                4000.00    
       5564                4000.00    
       5565                4000.00    
       5566                4000.00    
       5567                4000.00    
       5568                4000.00    
       5569                4000.00    
       5570                4000.00    
       5571                4000.00    
       5572                4000.00    
       5573                4000.00    
       5574                4000.00    
       5575                4000.00    
       5576                4000.00    
       5577                4000.00    
       5578                4000.00    
       5579                4000.00    
       5580                4000.00    
       5581                4000.00    
       5582                4000.00    
       5583                4000.00    
       5584                4000.00    
       5585                4000.00    
       5586                4000.00    
       5587                4000.00    
       5588                4000.00    
       5589                4000.00    
       5590                4000.00    
       5591                4000.00    
       5592                4000.00    
       5593                4000.00    
       5594                4000.00    
       5595                4000.00    
       5596                4000.00    
       5597                4000.00    
       5598                4000.00    
       5599                4000.00    
       5600                4000.00    
       5601                4000.00    
       5602                4000.00    
       5603                4000.00    
       5604                4000.00    
       5605                4000.00    
       5606                4000.00    
       5607                4000.00    
       5608                4000.00    
       5609                4000.00    
       5610                4000.00    
       5611                4000.00    
       5612                4000.00    
       5613                4000.00    
       5614                4000.00    
       5615                4000.00    
       5616                4000.00    
       5617                4000.00    
       5618                4000.00    
       5619                4000.00    
       5620                4000.00    
       5621                4000.00    
       5622                4000.00    
       5623                4000.00    
       5624                4000.00    
       5625                4000.00    
       5626                4000.00    
       5627                4000.00    
       5628                4000.00    
       5629                4000.00    
       5630                4000.00    
       5631                4000.00    
       5632                4000.00    
       5633                4000.00    
       5634                4000.00    
       5635                4000.00    
       5636                4000.00    
       5637                4000.00    
       5638                4000.00    
       5639                4000.00    
       5640                4000.00    
       5641                4000.00    
       5642                4000.00    
       5643                4000.00    
       5644                4000.00    
       5645                4000.00    
       5646                4000.00    
       5647                4000.00    
       5648                4000.00    
       5649                4000.00    
       5650                4000.00    
       5651                4000.00    
       5652                4000.00    
       5653                4000.00    
       5654                4000.00    
       5655                4000.00    
       5656                4000.00    
       5657                4000.00    
       5658                4000.00    
       5659                4000.00    
       5660                4000.00    
       5661                4000.00    
       5662                4000.00    
       5663                4000.00    
       5664                4000.00    
       5665                4000.00    
       5666                4000.00    
       5667                4000.00    
       5668                4000.00    
       5669                4000.00    
       5670                4000.00    
       5671                4000.00    
       5672                4000.00    
       5673                4000.00    
       5674                4000.00    
       5675                4000.00    
       5676                4000.00    
       5677                4000.00    
       5678                4000.00    
       5679                4000.00    
       5680                4000.00    
       5681                4000.00    
       5682                4000.00    
       5683                4000.00    
       5684                4000.00    
       5685                4000.00    
       5686                4000.00    
       5687                4000.00    
       5688                4000.00    
       5689                4000.00    
       5690                4000.00    
       5691                4000.00    
       5692                4000.00    
       5693                4000.00    
       5694                4000.00    
       5695                4000.00    
       5696                4000.00    
       5697                4000.00    
       5698                4000.00    
       5699                4000.00    
       5700                4000.00    
       5701                4000.00    
       5702                4000.00    
       5703                4000.00    
       5704                4000.00    
       5705                4000.00    
       5706                4000.00    
       5707                4000.00    
       5708                4000.00    
       5709                4000.00    
       5710                4000.00    
       5711                4000.00    
       5712                4000.00    
       5713                4000.00    
       5714                4000.00    
       5715                4000.00    
       5716                4000.00    
       5717                4000.00    
       5718                4000.00    
       5719                4000.00    
       5720                4000.00    
       5721                4000.00    
       5722                4000.00    
       5723                4000.00    
       5724                4000.00    
       5725                4000.00    
       5726                4000.00    
       5727                4000.00    
       5728                4000.00    
       5729                4000.00    
       5730                4000.00    
       5731                4000.00    
       5732                4000.00    
       5733                4000.00    
       5734                4000.00    
       5735                4000.00    
       5736                4000.00    
       5737                4000.00    
       5738                4000.00    
       5739                4000.00    
       5740                4000.00    
       5741                4000.00    
       5742                4000.00    
       5743                4000.00    
       5744                4000.00    
       5745                4000.00    
       5746                4000.00    
       5747                4000.00    
       5748                4000.00    
       5749                4000.00    
       5750                4000.00    
       5751                4000.00    
       5752                4000.00    
       5753                4000.00    
       5754                4000.00    
       5755                4000.00    
       5756                4000.00    
       5757                4000.00    
       5758                4000.00    
       5759                4000.00    
       5760                4000.00    
       5761                4000.00    
       5762                4000.00    
       5763                4000.00    
       5764                4000.00    
       5765                4000.00    
       5766                4000.00    
       5767                4000.00    
       5768                4000.00    
       5769                4000.00    
       5770                4000.00    
       5771                4000.00    
       5772                4000.00    
       5773                4000.00    
       5774                4000.00    
       5775                4000.00    
       5776                4000.00    
       5777                4000.00    
       5778                4000.00    
       5779                4000.00    
       5780                4000.00    
       5781                4000.00    
       5782                4000.00    
       5783                4000.00    
       5784                4000.00    
       5785                4000.00    
       5786                4000.00    
       5787                4000.00    
       5788                4000.00    
       5789                4000.00    
       5790                4000.00    
       5791                4000.00    
       5792                4000.00    
       5793                4000.00    
       5794                4000.00    
       5795                4000.00    
       5796                4000.00    
       5797                4000.00    
       5798                4000.00    
       5799                4000.00    
       5800                4000.00    
       5801                4000.00    
       5802                4000.00    
       5803                4000.00    
       5804                4000.00    
       5805                4000.00    
       5806                4000.00    
       5807                4000.00    
       5808                4000.00    
       5809                4000.00    
       5810                4000.00    
       5811                4000.00    
       5812                4000.00    
       5813                4000.00    
       5814                4000.00    
       5815                4000.00    
       5816                4000.00    
       5817                4000.00    
       5818                4000.00    
       5819                4000.00    
       5820                4000.00    
       5821                4000.00    
       5822                4000.00    
       5823                4000.00    
       5824                4000.00    
       5825                4000.00    
       5826                4000.00    
       5827                4000.00    
       5828                4000.00    
       5829                4000.00    
       5830                4000.00    
       5831                4000.00    
       5832                4000.00    
       5833                4000.00    
       5834                4000.00    
       5835                4000.00    
       5836                4000.00    
       5837                4000.00    
       5838                4000.00    
       5839                4000.00    
       5840                4000.00    
       5841                4000.00    
       5842                4000.00    
       5843                4000.00    
       5844                4000.00    
       5845                4000.00    
       5846                4000.00    
       5847                4000.00    
       5848                4000.00    
       5849                4000.00    
       5850                4000.00    
       5851                4000.00    
       5852                4000.00    
       5853                4000.00    
       5854                4000.00    
       5855                4000.00    
       5856                4000.00    
       5857                4000.00    
       5858                4000.00    
       5859                4000.00    
       5860                4000.00    
       5861                4000.00    
       5862                4000.00    
       5863                4000.00    
       5864                4000.00    
       5865                4000.00    
       5866                4000.00    
       5867                4000.00    
       5868                4000.00    
       5869                4000.00    
       5870                4000.00    
       5871                4000.00    
       5872                4000.00    
       5873                4000.00    
       5874                4000.00    
       5875                4000.00    
       5876                4000.00    
       5877                4000.00    
       5878                4000.00    
       5879                4000.00    
       5880                4000.00    
       5881                4000.00    
       5882                4000.00    
       5883                4000.00    
       5884                4000.00    
       5885                4000.00    
       5886                4000.00    
       5887                4000.00    
       5888                4000.00    
       5889                4000.00    
       5890                4000.00    
       5891                4000.00    
       5892                4000.00    
       5893                4000.00    
       5894                4000.00    
       5895                4000.00    
       5896                4000.00    
       5897                4000.00    
       5898                4000.00    
       5899                4000.00    
       5900                4000.00    
       5901                4000.00    
       5902                4000.00    
       5903                4000.00    
       5904                4000.00    
       5905                4000.00    
       5906                4000.00    
       5907                4000.00    
       5908                4000.00    
       5909                4000.00    
       5910                4000.00    
       5911                4000.00    
       5912                4000.00    
       5913                4000.00    
       5914                4000.00    
       5915                4000.00    
       5916                4000.00    
       5917                4000.00    
       5918                4000.00    
       5919                4000.00    
       5920                4000.00    
       5921                4000.00    
       5922                4000.00    
       5923                4000.00    
       5924                4000.00    
       5925                4000.00    
       5926                4000.00    
       5927                4000.00    
       5928                4000.00    
       5929                4000.00    
       5930                4000.00    
       5931                4000.00    
       5932                4000.00    
       5933                4000.00    
       5934                4000.00    
       5935                4000.00    
       5936                4000.00    
       5937                4000.00    
       5938                4000.00    
       5939                4000.00    
       5940                4000.00    
       5941                4000.00    
       5942                4000.00    
       5943                4000.00    
       5944                4000.00    
       5945                4000.00    
       5946                4000.00    
       5947                4000.00    
       5948                4000.00    
       5949                4000.00    
       5950                4000.00    
       5951                4000.00    
       5952                4000.00    
       5953                4000.00    
       5954                4000.00    
       5955                4000.00    
       5956                4000.00    
       5957                4000.00    
       5958                4000.00    
       5959                4000.00    
       5960                4000.00    
       5961                4000.00    
       5962                4000.00    
       5963                4000.00    
       5964                4000.00    
       5965                4000.00    
       5966                4000.00    
       5967                4000.00    
       5968                4000.00    
       5969                4000.00    
       5970                4000.00    
       5971                4000.00    
       5972                4000.00    
       5973                4000.00    
       5974                4000.00    
       5975                4000.00    
       5976                4000.00    
       5977                4000.00    
       5978                4000.00    
       5979                4000.00    
       5980                4000.00    
       5981                4000.00    
       5982                4000.00    
       5983                4000.00    
       5984                4000.00    
       5985                4000.00    
       5986                4000.00    
       5987                4000.00    
       5988                4000.00    
       5989                4000.00    
       5990                4000.00    
       5991                4000.00    
       5992                4000.00    
       5993                4000.00    
       5994                4000.00    
       5995                4000.00    
       5996                4000.00    
       5997                4000.00    
       5998                4000.00    
       5999                4000.00    
       6000                4000.00    
       6001                4000.00    
       6002                4000.00    
       6003                4000.00    
       6004                4000.00    
       6005                4000.00    
       6006                4000.00    
       6007                4000.00    
       6008                4000.00    
       6009                4000.00    
       6010                4000.00    
       6011                4000.00    
       6012                4000.00    
       6013                4000.00    
       6014                4000.00    
       6015                4000.00    
       6016                4000.00    
       6017                4000.00    
       6018                4000.00    
       6019                4000.00    
       6020                4000.00    
       6021                4000.00    
       6022                4000.00    
       6023                4000.00    
       6024                4000.00    
       6025                4000.00    
       6026                4000.00    
       6027                4000.00    
       6028                4000.00    
       6029                4000.00    
       6030                4000.00    
       6031                4000.00    
       6032                4000.00    
       6033                4000.00    
       6034                4000.00    
       6035                4000.00    
       6036                4000.00    
       6037                4000.00    
       6038                4000.00    
       6039                4000.00    
       6040                4000.00    
       6041                4000.00    
       6042                4000.00    
       6043                4000.00    
       6044                4000.00    
       6045                4000.00    
       6046                4000.00    
       6047                4000.00    
       6048                4000.00    
       6049                4000.00    
       6050                4000.00    
       6051                4000.00    
       6052                4000.00    
       6053                4000.00    
       6054                4000.00    
       6055                4000.00    
       6056                4000.00    
       6057                4000.00    
       6058                4000.00    
       6059                4000.00    
       6060                4000.00    
       6061                4000.00    
       6062                4000.00    
       6063                4000.00    
       6064                4000.00    
       6065                4000.00    
       6066                4000.00    
       6067                4000.00    
       6068                4000.00    
       6069                4000.00    
       6070                4000.00    
       6071                4000.00    
       6072                4000.00    
       6073                4000.00    
       6074                4000.00    
       6075                4000.00    
       6076                4000.00    
       6077                4000.00    
       6078                4000.00    
       6079                4000.00    
       6080                4000.00    
       6081                4000.00    
       6082                4000.00    
       6083                4000.00    
       6084                4000.00    
       6085                4000.00    
       6086                4000.00    
       6087                4000.00    
       6088                4000.00    
       6089                4000.00    
       6090                4000.00    
       6091                4000.00    
       6092                4000.00    
       6093                4000.00    
       6094                4000.00    
       6095                4000.00    
       6096                4000.00    
       6097                4000.00    
       6098                4000.00    
       6099                4000.00    
       6100                4000.00    
       6101                4000.00    
       6102                4000.00    
       6103                4000.00    
       6104                4000.00    
       6105                4000.00    
       6106                4000.00    
       6107                4000.00    
       6108                4000.00    
       6109                4000.00    
       6110                4000.00    
       6111                4000.00    
       6112                4000.00    
       6113                4000.00    
       6114                4000.00    
       6115                4000.00    
       6116                4000.00    
       6117                4000.00    
       6118                4000.00    
       6119                4000.00    
       6120                4000.00    
       6121                4000.00    
       6122                4000.00    
       6123                4000.00    
       6124                4000.00    
       6125                4000.00    
       6126                4000.00    
       6127                4000.00    
       6128                4000.00    
       6129                4000.00    
       6130                4000.00    
       6131                4000.00    
       6132                4000.00    
       6133                4000.00    
       6134                4000.00    
       6135                4000.00    
       6136                4000.00    
       6137                4000.00    
       6138                4000.00    
       6139                4000.00    
       6140                4000.00    
       6141                4000.00    
       6142                4000.00    
       6143                4000.00    
       6144                4000.00    
       6145                4000.00    
       6146                4000.00    
       6147                4000.00    
       6148                4000.00    
       6149                4000.00    
       6150                4000.00    
       6151                4000.00    
       6152                4000.00    
       6153                4000.00    
       6154                4000.00    
       6155                4000.00    
       6156                4000.00    
       6157                4000.00    
       6158                4000.00    
       6159                4000.00    
       6160                4000.00    
       6161                4000.00    
       6162                4000.00    
       6163                4000.00    
       6164                4000.00    
       6165                4000.00    
       6166                4000.00    
       6167                4000.00    
       6168                4000.00    
       6169                4000.00    
       6170                4000.00    
       6171                4000.00    
       6172                4000.00    
       6173                4000.00    
       6174                4000.00    
       6175                4000.00    
       6176                4000.00    
       6177                4000.00    
       6178                4000.00    
       6179                4000.00    
       6180                4000.00    
       6181                4000.00    
       6182                4000.00    
       6183                4000.00    
       6184                4000.00    
       6185                4000.00    
       6186                4000.00    
       6187                4000.00    
       6188                4000.00    
       6189                4000.00    
       6190                4000.00    
       6191                4000.00    
       6192                4000.00    
       6193                4000.00    
       6194                4000.00    
       6195                4000.00    
       6196                4000.00    
       6197                4000.00    
       6198                4000.00    
       6199                4000.00    
       6200                4000.00    
       6201                4000.00    
       6202                4000.00    
       6203                4000.00    
       6204                4000.00    
       6205                4000.00    
       6206                4000.00    
       6207                4000.00    
       6208                4000.00    
       6209                4000.00    
       6210                4000.00    
       6211                4000.00    
       6212                4000.00    
       6213                4000.00    
       6214                4000.00    
       6215                4000.00    
       6216                4000.00    
       6217                4000.00    
       6218                4000.00    
       6219                4000.00    
       6220                4000.00    
       6221                4000.00    
       6222                4000.00    
       6223                4000.00    
       6224                4000.00    
       6225                4000.00    
       6226                4000.00    
       6227                4000.00    
       6228                4000.00    
       6229                4000.00    
       6230                4000.00    
       6231                4000.00    
       6232                4000.00    
       6233                4000.00    
       6234                4000.00    
       6235                4000.00    
       6236                4000.00    
       6237                4000.00    
       6238                4000.00    
       6239                4000.00    
       6240                4000.00    
       6241                4000.00    
       6242                4000.00    
       6243                4000.00    
       6244                4000.00    
       6245                4000.00    
       6246                4000.00    
       6247                4000.00    
       6248                4000.00    
       6249                4000.00    
       6250                4000.00    
       6251                4000.00    
       6252                4000.00    
       6253                4000.00    
       6254                4000.00    
       6255                4000.00    
       6256                4000.00    
       6257                4000.00    
       6258                4000.00    
       6259                4000.00    
       6260                4000.00    
       6261                4000.00    
       6262                4000.00    
       6263                4000.00    
       6264                4000.00    
       6265                4000.00    
       6266                4000.00    
       6267                4000.00    
       6268                4000.00    
       6269                4000.00    
       6270                4000.00    
       6271                4000.00    
       6272                4000.00    
       6273                4000.00    
       6274                4000.00    
       6275                4000.00    
       6276                4000.00    
       6277                4000.00    
       6278                4000.00    
       6279                4000.00    
       6280                4000.00    
       6281                4000.00    
       6282                4000.00    
       6283                4000.00    
       6284                4000.00    
       6285                4000.00    
       6286                4000.00    
       6287                4000.00    
       6288                4000.00    
       6289                4000.00    
       6290                4000.00    
       6291                4000.00    
       6292                4000.00    
       6293                4000.00    
       6294                4000.00    
       6295                4000.00    
       6296                4000.00    
       6297                4000.00    
       6298                4000.00    
       6299                4000.00    
       6300                4000.00    
       6301                4000.00    
       6302                4000.00    
       6303                4000.00    
       6304                4000.00    
       6305                4000.00    
       6306                4000.00    
       6307                4000.00    
       6308                4000.00    
       6309                4000.00    
       6310                4000.00    
       6311                4000.00    
       6312                4000.00    
       6313                4000.00    
       6314                4000.00    
       6315                4000.00    
       6316                4000.00    
       6317                4000.00    
       6318                4000.00    
       6319                4000.00    
       6320                4000.00    
       6321                4000.00    
       6322                4000.00    
       6323                4000.00    
       6324                4000.00    
       6325                4000.00    
       6326                4000.00    
       6327                4000.00    
       6328                4000.00    
       6329                4000.00    
       6330                4000.00    
       6331                4000.00    
       6332                4000.00    
       6333                4000.00    
       6334                4000.00    
       6335                4000.00    
       6336                4000.00    
       6337                4000.00    
       6338                4000.00    
       6339                4000.00    
       6340                4000.00    
       6341                4000.00    
       6342                4000.00    
       6343                4000.00    
       6344                4000.00    
       6345                4000.00    
       6346                4000.00    
       6347                4000.00    
       6348                4000.00    
       6349                4000.00    
       6350                4000.00    
       6351                4000.00    
       6352                4000.00    
       6353                4000.00    
       6354                4000.00    
       6355                4000.00    
       6356                4000.00    
       6357                4000.00    
       6358                4000.00    
       6359                4000.00    
       6360                4000.00    
       6361                4000.00    
       6362                4000.00    
       6363                4000.00    
       6364                4000.00    
       6365                4000.00    
       6366                4000.00    
       6367                4000.00    
       6368                4000.00    
       6369                4000.00    
       6370                4000.00    
       6371                4000.00    
       6372                4000.00    
       6373                4000.00    
       6374                4000.00    
       6375                4000.00    
       6376                4000.00    
       6377                4000.00    
       6378                4000.00    
       6379                4000.00    
       6380                4000.00    
       6381                4000.00    
       6382                4000.00    
       6383                4000.00    
       6384                4000.00    
       6385                4000.00    
       6386                4000.00    
       6387                4000.00    
       6388                4000.00    
       6389                4000.00    
       6390                4000.00    
       6391                4000.00    
       6392                4000.00    
       6393                4000.00    
       6394                4000.00    
       6395                4000.00    
       6396                4000.00    
       6397                4000.00    
       6398                4000.00    
       6399                4000.00    
       6400                4000.00    
       6401                4000.00    
       6402                4000.00    
       6403                4000.00    
       6404                4000.00    
       6405                4000.00    
       6406                4000.00    
       6407                4000.00    
       6408                4000.00    
       6409                4000.00    
       6410                4000.00    
       6411                4000.00    
       6412                4000.00    
       6413                4000.00    
       6414                4000.00    
       6415                4000.00    
       6416                4000.00    
       6417                4000.00    
       6418                4000.00    
       6419                4000.00    
       6420                4000.00    
       6421                4000.00    
       6422                4000.00    
       6423                4000.00    
       6424                4000.00    
       6425                4000.00    
       6426                4000.00    
       6427                4000.00    
       6428                4000.00    
       6429                4000.00    
       6430                4000.00    
       6431                4000.00    
       6432                4000.00    
       6433                4000.00    
       6434                4000.00    
       6435                4000.00    
       6436                4000.00    
       6437                4000.00    
       6438                4000.00    
       6439                4000.00    
       6440                4000.00    
       6441                4000.00    
       6442                4000.00    
       6443                4000.00    
       6444                4000.00    
       6445                4000.00    
       6446                4000.00    
       6447                4000.00    
       6448                4000.00    
       6449                4000.00    
       6450                4000.00    
       6451                4000.00    
       6452                4000.00    
       6453                4000.00    
       6454                4000.00    
       6455                4000.00    
       6456                4000.00    
       6457                4000.00    
       6458                4000.00    
       6459                4000.00    
       6460                4000.00    
       6461                4000.00    
       6462                4000.00    
       6463                4000.00    
       6464                4000.00    
       6465                4000.00    
       6466                4000.00    
       6467                4000.00    
       6468                4000.00    
       6469                4000.00    
       6470                4000.00    
       6471                4000.00    
       6472                4000.00    
       6473                4000.00    
       6474                4000.00    
       6475                4000.00    
       6476                4000.00    
       6477                4000.00    
       6478                4000.00    
       6479                4000.00    
       6480                4000.00    
       6481                4000.00    
       6482                4000.00    
       6483                4000.00    
       6484                4000.00    
       6485                4000.00    
       6486                4000.00    
       6487                4000.00    
       6488                4000.00    
       6489                4000.00    
       6490                4000.00    
       6491                4000.00    
       6492                4000.00    
       6493                4000.00    
       6494                4000.00    
       6495                4000.00    
       6496                4000.00    
       6497                4000.00    
       6498                4000.00    
       6499                4000.00    
       6500                4000.00    
       6501                4000.00    
       6502                4000.00    
       6503                4000.00    
       6504                4000.00    
       6505                4000.00    
       6506                4000.00    
       6507                4000.00    
       6508                4000.00    
       6509                4000.00    
       6510                4000.00    
       6511                4000.00    
       6512                4000.00    
       6513                4000.00    
       6514                4000.00    
       6515                4000.00    
       6516                4000.00    
       6517                4000.00    
       6518                4000.00    
       6519                4000.00    
       6520                4000.00    
       6521                4000.00    
       6522                4000.00    
       6523                4000.00    
       6524                4000.00    
       6525                4000.00    
       6526                4000.00    
       6527                4000.00    
       6528                4000.00    
       6529                4000.00    
       6530                4000.00    
       6531                4000.00    
       6532                4000.00    
       6533                4000.00    
       6534                4000.00    
       6535                4000.00    
       6536                4000.00    
       6537                4000.00    
       6538                4000.00    
       6539                4000.00    
       6540                4000.00    
       6541                4000.00    
       6542                4000.00    
       6543                4000.00    
       6544                4000.00    
       6545                4000.00    
       6546                4000.00    
       6547                4000.00    
       6548                4000.00    
       6549                4000.00    
       6550                4000.00    
       6551                4000.00    
       6552                4000.00    
       6553                4000.00    
       6554                4000.00    
       6555                4000.00    
       6556                4000.00    
       6557                4000.00    
       6558                4000.00    
       6559                4000.00    
       6560                4000.00    
       6561                4000.00    
       6562                4000.00    
       6563                4000.00    
       6564                4000.00    
       6565                4000.00    
       6566                4000.00    
       6567                4000.00    
       6568                4000.00    
       6569                4000.00    
       6570                4000.00    
       6571                4000.00    
       6572                4000.00    
       6573                4000.00    
       6574                4000.00    
       6575                4000.00    
       6576                4000.00    
       6577                4000.00    
       6578                4000.00    
       6579                4000.00    
       6580                4000.00    
       6581                4000.00    
       6582                4000.00    
       6583                4000.00    
       6584                4000.00    
       6585                4000.00    
       6586                4000.00    
       6587                4000.00    
       6588                4000.00    
       6589                4000.00    
       6590                4000.00    
       6591                4000.00    
       6592                4000.00    
       6593                4000.00    
       6594                4000.00    
       6595                4000.00    
       6596                4000.00    
       6597                4000.00    
       6598                4000.00    
       6599                4000.00    
       6600                4000.00    
       6601                4000.00    
       6602                4000.00    
       6603                4000.00    
       6604                4000.00    
       6605                4000.00    
       6606                4000.00    
       6607                4000.00    
       6608                4000.00    
       6609                4000.00    
       6610                4000.00    
       6611                4000.00    
       6612                4000.00    
       6613                4000.00    
       6614                4000.00    
       6615                4000.00    
       6616                4000.00    
       6617                4000.00    
       6618                4000.00    
       6619                4000.00    
       6620                4000.00    
       6621                4000.00    
       6622                4000.00    
       6623                4000.00    
       6624                4000.00    
       6625                4000.00    
       6626                4000.00    
       6627                4000.00    
       6628                4000.00    
       6629                4000.00    
       6630                4000.00    
       6631                4000.00    
       6632                4000.00    
       6633                4000.00    
       6634                4000.00    
       6635                4000.00    
       6636                4000.00    
       6637                4000.00    
       6638                4000.00    
       6639                4000.00    
       6640                4000.00    
       6641                4000.00    
       6642                4000.00    
       6643                4000.00    
       6644                4000.00    
       6645                4000.00    
       6646                4000.00    
       6647                4000.00    
       6648                4000.00    
       6649                4000.00    
       6650                4000.00    
       6651                4000.00    
       6652                4000.00    
       6653                4000.00    
       6654                4000.00    
       6655                4000.00    
       6656                4000.00    
       6657                4000.00    
       6658                4000.00    
       6659                4000.00    
       6660                4000.00    
       6661                4000.00    
       6662                4000.00    
       6663                4000.00    
       6664                4000.00    
       6665                4000.00    
       6666                4000.00    
       6667                4000.00    
       6668                4000.00    
       6669                4000.00    
       6670                4000.00    
       6671                4000.00    
       6672                4000.00    
       6673                4000.00    
       6674                4000.00    
       6675                4000.00    
       6676                4000.00    
       6677                4000.00    
       6678                4000.00    
       6679                4000.00    
       6680                4000.00    
       6681                4000.00    
       6682                4000.00    
       6683                4000.00    
       6684                4000.00    
       6685                4000.00    
       6686                4000.00    
       6687                4000.00    
       6688                4000.00    
       6689                4000.00    
       6690                4000.00    
       6691                4000.00    
       6692                4000.00    
       6693                4000.00    
       6694                4000.00    
       6695                4000.00    
       6696                4000.00    
       6697                4000.00    
       6698                4000.00    
       6699                4000.00    
       6700                4000.00    
       6701                4000.00    
       6702                4000.00    
       6703                4000.00    
       6704                4000.00    
       6705                4000.00    
       6706                4000.00    
       6707                4000.00    
       6708                4000.00    
       6709                4000.00    
       6710                4000.00    
       6711                4000.00    
       6712                4000.00    
       6713                4000.00    
       6714                4000.00    
       6715                4000.00    
       6716                4000.00    
       6717                4000.00    
       6718                4000.00    
       6719                4000.00    
       6720                4000.00    
       6721                4000.00    
       6722                4000.00    
       6723                4000.00    
       6724                4000.00    
       6725                4000.00    
       6726                4000.00    
       6727                4000.00    
       6728                4000.00    
       6729                4000.00    
       6730                4000.00    
       6731                4000.00    
       6732                4000.00    
       6733                4000.00    
       6734                4000.00    
       6735                4000.00    
       6736                4000.00    
       6737                4000.00    
       6738                4000.00    
       6739                4000.00    
       6740                4000.00    
       6741                4000.00    
       6742                4000.00    
       6743                4000.00    
       6744                4000.00    
       6745                4000.00    
       6746                4000.00    
       6747                4000.00    
       6748                4000.00    
       6749                4000.00    
       6750                4000.00    
       6751                4000.00    
       6752                4000.00    
       6753                4000.00    
       6754                4000.00    
       6755                4000.00    
       6756                4000.00    
       6757                4000.00    
       6758                4000.00    
       6759                4000.00    
       6760                4000.00    
       6761                4000.00    
       6762                4000.00    
       6763                4000.00    
       6764                4000.00    
       6765                4000.00    
       6766                4000.00    
       6767                4000.00    
       6768                4000.00    
       6769                4000.00    
       6770                4000.00    
       6771                4000.00    
       6772                4000.00    
       6773                4000.00    
       6774                4000.00    
       6775                4000.00    
       6776                4000.00    
       6777                4000.00    
       6778                4000.00    
       6779                4000.00    
       6780                4000.00    
       6781                4000.00    
       6782                4000.00    
       6783                4000.00    
       6784                4000.00    
       6785                4000.00    
       6786                4000.00    
       6787                4000.00    
       6788                4000.00    
       6789                4000.00    
       6790                4000.00    
       6791                4000.00    
       6792                4000.00    
       6793                4000.00    
       6794                4000.00    
       6795                4000.00    
       6796                4000.00    
       6797                4000.00    
       6798                4000.00    
       6799                4000.00    
       6800                4000.00    
       6801                4000.00    
       6802                4000.00    
       6803                4000.00    
       6804                4000.00    
       6805                4000.00    
       6806                4000.00    
       6807                4000.00    
       6808                4000.00    
       6809                4000.00    
       6810                4000.00    
       6811                4000.00    
       6812                4000.00    
       6813                4000.00    
       6814                4000.00    
       6815                4000.00    
       6816                4000.00    
       6817                4000.00    
       6818                4000.00    
       6819                4000.00    
       6820                4000.00    
       6821                4000.00    
       6822                4000.00    
       6823                4000.00    
       6824                4000.00    
       6825                4000.00    
       6826                4000.00    
       6827                4000.00    
       6828                4000.00    
       6829                4000.00    
       6830                4000.00    
       6831                4000.00    
       6832                4000.00    
       6833                4000.00    
       6834                4000.00    
       6835                4000.00    
       6836                4000.00    
       6837                4000.00    
       6838                4000.00    
       6839                4000.00    
       6840                4000.00    
       6841                4000.00    
       6842                4000.00    
       6843                4000.00    
       6844                4000.00    
       6845                4000.00    
       6846                4000.00    
       6847                4000.00    
       6848                4000.00    
       6849                4000.00    
       6850                4000.00    
       6851                4000.00    
       6852                4000.00    
       6853                4000.00    
       6854                4000.00    
       6855                4000.00    
       6856                4000.00    
       6857                4000.00    
       6858                4000.00    
       6859                4000.00    
       6860                4000.00    
       6861                4000.00    
       6862                4000.00    
       6863                4000.00    
       6864                4000.00    
       6865                4000.00    
       6866                4000.00    
       6867                4000.00    
       6868                4000.00    
       6869                4000.00    
       6870                4000.00    
       6871                4000.00    
       6872                4000.00    
       6873                4000.00    
       6874                4000.00    
       6875                4000.00    
       6876                4000.00    
       6877                4000.00    
       6878                4000.00    
       6879                4000.00    
       6880                4000.00    
       6881                4000.00    
       6882                4000.00    
       6883                4000.00    
       6884                4000.00    
       6885                4000.00    
       6886                4000.00    
       6887                4000.00    
       6888                4000.00    
       6889                4000.00    
       6890                4000.00    
       6891                4000.00    
       6892                4000.00    
       6893                4000.00    
       6894                4000.00    
       6895                4000.00    
       6896                4000.00    
       6897                4000.00    
       6898                4000.00    
       6899                4000.00    
       6900                4000.00    
       6901                4000.00    
       6902                4000.00    
       6903                4000.00    
       6904                4000.00    
       6905                4000.00    
       6906                4000.00    
       6907                4000.00    
       6908                4000.00    
       6909                4000.00    
       6910                4000.00    
       6911                4000.00    
       6912                4000.00    
       6913                4000.00    
       6914                4000.00    
       6915                4000.00    
       6916                4000.00    
       6917                4000.00    
       6918                4000.00    
       6919                4000.00    
       6920                4000.00    
       6921                4000.00    
       6922                4000.00    
       6923                4000.00    
       6924                4000.00    
       6925                4000.00    
       6926                4000.00    
       6927                4000.00    
       6928                4000.00    
       6929                4000.00    
       6930                4000.00    
       6931                4000.00    
       6932                4000.00    
       6933                4000.00    
       6934                4000.00    
       6935                4000.00    
       6936                4000.00    
       6937                4000.00    
       6938                4000.00    
       6939                4000.00    
       6940                4000.00    
       6941                4000.00    
       6942                4000.00    
       6943                4000.00    
       6944                4000.00    
       6945                4000.00    
       6946                4000.00    
       6947                4000.00    
       6948                4000.00    
       6949                4000.00    
       6950                4000.00    
       6951                4000.00    
       6952                4000.00    
       6953                4000.00    
       6954                4000.00    
       6955                4000.00    
       6956                4000.00    
       6957                4000.00    
       6958                4000.00    
       6959                4000.00    
       6960                4000.00    
       6961                4000.00    
       6962                4000.00    
       6963                4000.00    
       6964                4000.00    
       6965                4000.00    
       6966                4000.00    
       6967                4000.00    
       6968                4000.00    
       6969                4000.00    
       6970                4000.00    
       6971                4000.00    
       6972                4000.00    
       6973                4000.00    
       6974                4000.00    
       6975                4000.00    
       6976                4000.00    
       6977                4000.00    
       6978                4000.00    
       6979                4000.00    
       6980                4000.00    
       6981                4000.00    
       6982                4000.00    
       6983                4000.00    
       6984                4000.00    
       6985                4000.00    
       6986                4000.00    
       6987                4000.00    
       6988                4000.00    
       6989                4000.00    
       6990                4000.00    
       6991                4000.00    
       6992                4000.00    
       6993                4000.00    
       6994                4000.00    
       6995                4000.00    
       6996                4000.00    
       6997                4000.00    
       6998                4000.00    
       6999                4000.00    
       7000                4000.00    
       7001                4000.00    
       7002                4000.00    
       7003                4000.00    
       7004                4000.00    
       7005                4000.00    
       7006                4000.00    
       7007                4000.00    
       7008                4000.00    
       7009                4000.00    
       7010                4000.00    
       7011                4000.00    
       7012                4000.00    
       7013                4000.00    
       7014                4000.00    
       7015                4000.00    
       7016                4000.00    
       7017                4000.00    
       7018                4000.00    
       7019                4000.00    
       7020                4000.00    
       7021                4000.00    
       7022                4000.00    
       7023                4000.00    
       7024                4000.00    
       7025                4000.00    
       7026                4000.00    
       7027                4000.00    
       7028                4000.00    
       7029                4000.00    
       7030                4000.00    
       7031                4000.00    
       7032                4000.00    
       7033                4000.00    
       7034                4000.00    
       7035                4000.00    
       7036                4000.00    
       7037                4000.00    
       7038                4000.00    
       7039                4000.00    
       7040                4000.00    
       7041                4000.00    
       7042                4000.00    
       7043                4000.00    
       7044                4000.00    
       7045                4000.00    
       7046                4000.00    
       7047                4000.00    
       7048                4000.00    
       7049                4000.00    
       7050                4000.00    
       7051                4000.00    
       7052                4000.00    
       7053                4000.00    
       7054                4000.00    
       7055                4000.00    
       7056                4000.00    
       7057                4000.00    
       7058                4000.00    
       7059                4000.00    
       7060                4000.00    
       7061                4000.00    
       7062                4000.00    
       7063                4000.00    
       7064                4000.00    
       7065                4000.00    
       7066                4000.00    
       7067                4000.00    
       7068                4000.00    
       7069                4000.00    
       7070                4000.00    
       7071                4000.00    
       7072                4000.00    
       7073                4000.00    
       7074                4000.00    
       7075                4000.00    
       7076                4000.00    
       7077                4000.00    
       7078                4000.00    
       7079                4000.00    
       7080                4000.00    
       7081                4000.00    
       7082                4000.00    
       7083                4000.00    
       7084                4000.00    
       7085                4000.00    
       7086                4000.00    
       7087                4000.00    
       7088                4000.00    
       7089                4000.00    
       7090                4000.00    
       7091                4000.00    
       7092                4000.00    
       7093                4000.00    
       7094                4000.00    
       7095                4000.00    
       7096                4000.00    
       7097                4000.00    
       7098                4000.00    
       7099                4000.00    
       7100                4000.00    
       7101                4000.00    
       7102                4000.00    
       7103                4000.00    
       7104                4000.00    
       7105                4000.00    
       7106                4000.00    
       7107                4000.00    
       7108                4000.00    
       7109                4000.00    
       7110                4000.00    
       7111                4000.00    
       7112                4000.00    
       7113                4000.00    
       7114                4000.00    
       7115                4000.00    
       7116                4000.00    
       7117                4000.00    
       7118                4000.00    
       7119                4000.00    
       7120                4000.00    
       7121                4000.00    
       7122                4000.00    
       7123                4000.00    
       7124                4000.00    
       7125                4000.00    
       7126                4000.00    
       7127                4000.00    
       7128                4000.00    
       7129                4000.00    
       7130                4000.00    
       7131                4000.00    
       7132                4000.00    
       7133                4000.00    
       7134                4000.00    
       7135                4000.00    
       7136                4000.00    
       7137                4000.00    
       7138                4000.00    
       7139                4000.00    
       7140                4000.00    
       7141                4000.00    
       7142                4000.00    
       7143                4000.00    
       7144                4000.00    
       7145                4000.00    
       7146                4000.00    
       7147                4000.00    
       7148                4000.00    
       7149                4000.00    
       7150                4000.00    
       7151                4000.00    
       7152                4000.00    
       7153                4000.00    
       7154                4000.00    
       7155                4000.00    
       7156                4000.00    
       7157                4000.00    
       7158                4000.00    
       7159                4000.00    
       7160                4000.00    
       7161                4000.00    
       7162                4000.00    
       7163                4000.00    
       7164                4000.00    
       7165                4000.00    
       7166                4000.00    
       7167                4000.00    
       7168                4000.00    
       7169                4000.00    
       7170                4000.00    
       7171                4000.00    
       7172                4000.00    
       7173                4000.00    
       7174                4000.00    
       7175                4000.00    
       7176                4000.00    
       7177                4000.00    
       7178                4000.00    
       7179                4000.00    
       7180                4000.00    
       7181                4000.00    
       7182                4000.00    
       7183                4000.00    
       7184                4000.00    
       7185                4000.00    
       7186                4000.00    
       7187                4000.00    
       7188                4000.00    
       7189                4000.00    
       7190                4000.00    
       7191                4000.00    
       7192                4000.00    
       7193                4000.00    
       7194                4000.00    
       7195                4000.00    
       7196                4000.00    
       7197                4000.00    
       7198                4000.00    
       7199                4000.00    
       7200                4000.00    
       7201                4000.00    
       7202                4000.00    
       7203                4000.00    
       7204                4000.00    
       7205                4000.00    
       7206                4000.00    
       7207                4000.00    
       7208                4000.00    
       7209                4000.00    
       7210                4000.00    
       7211                4000.00    
       7212                4000.00    
       7213                4000.00    
       7214                4000.00    
       7215                4000.00    
       7216                4000.00    
       7217                4000.00    
       7218                4000.00    
       7219                4000.00    
       7220                4000.00    
       7221                4000.00    
       7222                4000.00    
       7223                4000.00    
       7224                4000.00    
       7225                4000.00    
       7226                4000.00    
       7227                4000.00    
       7228                4000.00    
       7229                4000.00    
       7230                4000.00    
       7231                4000.00    
       7232                4000.00    
       7233                4000.00    
       7234                4000.00    
       7235                4000.00    
       7236                4000.00    
       7237                4000.00    
       7238                4000.00    
       7239                4000.00    
       7240                4000.00    
       7241                4000.00    
       7242                4000.00    
       7243                4000.00    
       7244                4000.00    
       7245                4000.00    
       7246                4000.00    
       7247                4000.00    
       7248                4000.00    
       7249                4000.00    
       7250                4000.00    
       7251                4000.00    
       7252                4000.00    
       7253                4000.00    
       7254                4000.00    
       7255                4000.00    
       7256                4000.00    
       7257                4000.00    
       7258                4000.00    
       7259                4000.00    
       7260                4000.00    
       7261                4000.00    
       7262                4000.00    
       7263                4000.00    
       7264                4000.00    
       7265                4000.00    
       7266                4000.00    
       7267                4000.00    
       7268                4000.00    
       7269                4000.00    
       7270                4000.00    
       7271                4000.00    
       7272                4000.00    
       7273                4000.00    
       7274                4000.00    
       7275                4000.00    
       7276                4000.00    
       7277                4000.00    
       7278                4000.00    
       7279                4000.00    
       7280                4000.00    
       7281                4000.00    
       7282                4000.00    
       7283                4000.00    
       7284                4000.00    
       7285                4000.00    
       7286                4000.00    
       7287                4000.00    
       7288                4000.00    
       7289                4000.00    
       7290                4000.00    
       7291                4000.00    
       7292                4000.00    
       7293                4000.00    
       7294                4000.00    
       7295                4000.00    
       7296                4000.00    
       7297                4000.00    
       7298                4000.00    
       7299                4000.00    
       7300                4000.00    
       7301                4000.00    
       7302                4000.00    
       7303                4000.00    
       7304                4000.00    
       7305                4000.00    
       7306                4000.00    
       7307                4000.00    
       7308                4000.00    
       7309                4000.00    
       7310                4000.00    
       7311                4000.00    
       7312                4000.00    
       7313                4000.00    
       7314                4000.00    
       7315                4000.00    
       7316                4000.00    
       7317                4000.00    
       7318                4000.00    
       7319                4000.00    
       7320                4000.00    
       7321                4000.00    
       7322                4000.00    
       7323                4000.00    
       7324                4000.00    
       7325                4000.00    
       7326                4000.00    
       7327                4000.00    
       7328                4000.00    
       7329                4000.00    
       7330                4000.00    
       7331                4000.00    
       7332                4000.00    
       7333                4000.00    
       7334                4000.00    
       7335                4000.00    
       7336                4000.00    
       7337                4000.00    
       7338                4000.00    
       7339                4000.00    
       7340                4000.00    
       7341                4000.00    
       7342                4000.00    
       7343                4000.00    
       7344                4000.00    
       7345                4000.00    
       7346                4000.00    
       7347                4000.00    
       7348                4000.00    
       7349                4000.00    
       7350                4000.00    
       7351                4000.00    
       7352                4000.00    
       7353                4000.00    
       7354                4000.00    
       7355                4000.00    
       7356                4000.00    
       7357                4000.00    
       7358                4000.00    
       7359                4000.00    
       7360                4000.00    
       7361                4000.00    
       7362                4000.00    
       7363                4000.00    
       7364                4000.00    
       7365                4000.00    
       7366                4000.00    
       7367                4000.00    
       7368                4000.00    
       7369                4000.00    
       7370                4000.00    
       7371                4000.00    
       7372                4000.00    
       7373                4000.00    
       7374                4000.00    
       7375                4000.00    
       7376                4000.00    
       7377                4000.00    
       7378                4000.00    
       7379                4000.00    
       7380                4000.00    
       7381                4000.00    
       7382                4000.00    
       7383                4000.00    
       7384                4000.00    
       7385                4000.00    
       7386                4000.00    
       7387                4000.00    
       7388                4000.00    
       7389                4000.00    
       7390                4000.00    
       7391                4000.00    
       7392                4000.00    
       7393                4000.00    
       7394                4000.00    
       7395                4000.00    
       7396                4000.00    
       7397                4000.00    
       7398                4000.00    
       7399                4000.00    
       7400                4000.00    
       7401                4000.00    
       7402                4000.00    
       7403                4000.00    
       7404                4000.00    
       7405                4000.00    
       7406                4000.00    
       7407                4000.00    
       7408                4000.00    
       7409                4000.00    
       7410                4000.00    
       7411                4000.00    
       7412                4000.00    
       7413                4000.00    
       7414                4000.00    
       7415                4000.00    
       7416                4000.00    
       7417                4000.00    
       7418                4000.00    
       7419                4000.00    
       7420                4000.00    
       7421                4000.00    
       7422                4000.00    
       7423                4000.00    
       7424                4000.00    
       7425                4000.00    
       7426                4000.00    
       7427                4000.00    
       7428                4000.00    
       7429                4000.00    
       7430                4000.00    
       7431                4000.00    
       7432                4000.00    
       7433                4000.00    
       7434                4000.00    
       7435                4000.00    
       7436                4000.00    
       7437                4000.00    
       7438                4000.00    
       7439                4000.00    
       7440                4000.00    
       7441                4000.00    
       7442                4000.00    
       7443                4000.00    
       7444                4000.00    
       7445                4000.00    
       7446                4000.00    
       7447                4000.00    
       7448                4000.00    
       7449                4000.00    
       7450                4000.00    
       7451                4000.00    
       7452                4000.00    
       7453                4000.00    
       7454                4000.00    
       7455                4000.00    
       7456                4000.00    
       7457                4000.00    
       7458                4000.00    
       7459                4000.00    
       7460                4000.00    
       7461                4000.00    
       7462                4000.00    
       7463                4000.00    
       7464                4000.00    
       7465                4000.00    
       7466                4000.00    
       7467                4000.00    
       7468                4000.00    
       7469                4000.00    
       7470                4000.00    
       7471                4000.00    
       7472                4000.00    
       7473                4000.00    
       7474                4000.00    
       7475                4000.00    
       7476                4000.00    
       7477                4000.00    
       7478                4000.00    
       7479                4000.00    
       7480                4000.00    
       7481                4000.00    
       7482                4000.00    
       7483                4000.00    
       7484                4000.00    
       7485                4000.00    
       7486                4000.00    
       7487                4000.00    
       7488                4000.00    
       7489                4000.00    
       7490                4000.00    
       7491                4000.00    
       7492                4000.00    
       7493                4000.00    
       7494                4000.00    
       7495                4000.00    
       7496                4000.00    
       7497                4000.00    
       7498                4000.00    
       7499                4000.00    
       7500                4000.00    
       7501                4000.00    
       7502                4000.00    
       7503                4000.00    
       7504                4000.00    
       7505                4000.00    
       7506                4000.00    
       7507                4000.00    
       7508                4000.00    
       7509                4000.00    
       7510                4000.00    
       7511                4000.00    
       7512                4000.00    
       7513                4000.00    
       7514                4000.00    
       7515                4000.00    
       7516                4000.00    
       7517                4000.00    
       7518                4000.00    
       7519                4000.00    
       7520                4000.00    
       7521                4000.00    
       7522                4000.00    
       7523                4000.00    
       7524                4000.00    
       7525                4000.00    
       7526                4000.00    
       7527                4000.00    
       7528                4000.00    
       7529                4000.00    
       7530                4000.00    
       7531                4000.00    
       7532                4000.00    
       7533                4000.00    
       7534                4000.00    
       7535                4000.00    
       7536                4000.00    
       7537                4000.00    
       7538                4000.00    
       7539                4000.00    
       7540                4000.00    
       7541                4000.00    
       7542                4000.00    
       7543                4000.00    
       7544                4000.00    
       7545                4000.00    
       7546                4000.00    
       7547                4000.00    
       7548                4000.00    
       7549                4000.00    
       7550                4000.00    
       7551                4000.00    
       7552                4000.00    
       7553                4000.00    
       7554                4000.00    
       7555                4000.00    
       7556                4000.00    
       7557                4000.00    
       7558                4000.00    
       7559                4000.00    
       7560                4000.00    
       7561                4000.00    
       7562                4000.00    
       7563                4000.00    
       7564                4000.00    
       7565                4000.00    
       7566                4000.00    
       7567                4000.00    
       7568                4000.00    
       7569                4000.00    
       7570                4000.00    
       7571                4000.00    
       7572                4000.00    
       7573                4000.00    
       7574                4000.00    
       7575                4000.00    
       7576                4000.00    
       7577                4000.00    
       7578                4000.00    
       7579                4000.00    
       7580                4000.00    
       7581                4000.00    
       7582                4000.00    
       7583                4000.00    
       7584                4000.00    
       7585                4000.00    
       7586                4000.00    
       7587                4000.00    
       7588                4000.00    
       7589                4000.00    
       7590                4000.00    
       7591                4000.00    
       7592                4000.00    
       7593                4000.00    
       7594                4000.00    
       7595                4000.00    
       7596                4000.00    
       7597                4000.00    
       7598                4000.00    
       7599                4000.00    
       7600                4000.00    
       7601                4000.00    
       7602                4000.00    
       7603                4000.00    
       7604                4000.00    
       7605                4000.00    
       7606                4000.00    
       7607                4000.00    
       7608                4000.00    
       7609                4000.00    
       7610                4000.00    
       7611                4000.00    
       7612                4000.00    
       7613                4000.00    
       7614                4000.00    
       7615                4000.00    
       7616                4000.00    
       7617                4000.00    
       7618                4000.00    
       7619                4000.00    
       7620                4000.00    
       7621                4000.00    
       7622                4000.00    
       7623                4000.00    
       7624                4000.00    
       7625                4000.00    
       7626                4000.00    
       7627                4000.00    
       7628                4000.00    
       7629                4000.00    
       7630                4000.00    
       7631                4000.00    
       7632                4000.00    
       7633                4000.00    
       7634                4000.00    
       7635                4000.00    
       7636                4000.00    
       7637                4000.00    
       7638                4000.00    
       7639                4000.00    
       7640                4000.00    
       7641                4000.00    
       7642                4000.00    
       7643                4000.00    
       7644                4000.00    
       7645                4000.00    
       7646                4000.00    
       7647                4000.00    
       7648                4000.00    
       7649                4000.00    
       7650                4000.00    
       7651                4000.00    
       7652                4000.00    
       7653                4000.00    
       7654                4000.00    
       7655                4000.00    
       7656                4000.00    
       7657                4000.00    
       7658                4000.00    
       7659                4000.00    
       7660                4000.00    
       7661                4000.00    
       7662                4000.00    
       7663                4000.00    
       7664                4000.00    
       7665                4000.00    
       7666                4000.00    
       7667                4000.00    
       7668                4000.00    
       7669                4000.00    
       7670                4000.00    
       7671                4000.00    
       7672                4000.00    
       7673                4000.00    
       7674                4000.00    
       7675                4000.00    
       7676                4000.00    
       7677                4000.00    
       7678                4000.00    
       7679                4000.00    
       7680                4000.00    
       7681                4000.00    
       7682                4000.00    
       7683                4000.00    
       7684                4000.00    
       7685                4000.00    
       7686                4000.00    
       7687                4000.00    
       7688                4000.00    
       7689                4000.00    
       7690                4000.00    
       7691                4000.00    
       7692                4000.00    
       7693                4000.00    
       7694                4000.00    
       7695                4000.00    
       7696                4000.00    
       7697                4000.00    
       7698                4000.00    
       7699                4000.00    
       7700                4000.00    
       7701                4000.00    
       7702                4000.00    
       7703                4000.00    
       7704                4000.00    
       7705                4000.00    
       7706                4000.00    
       7707                4000.00    
       7708                4000.00    
       7709                4000.00    
       7710                4000.00    
       7711                4000.00    
       7712                4000.00    
       7713                4000.00    
       7714                4000.00    
       7715                4000.00    
       7716                4000.00    
       7717                4000.00    
       7718                4000.00    
       7719                4000.00    
       7720                4000.00    
       7721                4000.00    
       7722                4000.00    
       7723                4000.00    
       7724                4000.00    
       7725                4000.00    
       7726                4000.00    
       7727                4000.00    
       7728                4000.00    
       7729                4000.00    
       7730                4000.00    
       7731                4000.00    
       7732                4000.00    
       7733                4000.00    
       7734                4000.00    
       7735                4000.00    
       7736                4000.00    
       7737                4000.00    
       7738                4000.00    
       7739                4000.00    
       7740                4000.00    
       7741                4000.00    
       7742                4000.00    
       7743                4000.00    
       7744                4000.00    
       7745                4000.00    
       7746                4000.00    
       7747                4000.00    
       7748                4000.00    
       7749                4000.00    
       7750                4000.00    
       7751                4000.00    
       7752                4000.00    
       7753                4000.00    
       7754                4000.00    
       7755                4000.00    
       7756                4000.00    
       7757                4000.00    
       7758                4000.00    
       7759                4000.00    
       7760                4000.00    
       7761                4000.00    
       7762                4000.00    
       7763                4000.00    
       7764                4000.00    
       7765                4000.00    
       7766                4000.00    
       7767                4000.00    
       7768                4000.00    
       7769                4000.00    
       7770                4000.00    
       7771                4000.00    
       7772                4000.00    
       7773                4000.00    
       7774                4000.00    
       7775                4000.00    
       7776                4000.00    
       7777                4000.00    
       7778                4000.00    
       7779                4000.00    
       7780                4000.00    
       7781                4000.00    
       7782                4000.00    
       7783                4000.00    
       7784                4000.00    
       7785                4000.00    
       7786                4000.00    
       7787                4000.00    
       7788                4000.00    
       7789                4000.00    
       7790                4000.00    
       7791                4000.00    
       7792                4000.00    
       7793                4000.00    
       7794                4000.00    
       7795                4000.00    
       7796                4000.00    
       7797                4000.00    
       7798                4000.00    
       7799                4000.00    
       7800                4000.00    
       7801                4000.00    
       7802                4000.00    
       7803                4000.00    
       7804                4000.00    
       7805                4000.00    
       7806                4000.00    
       7807                4000.00    
       7808                4000.00    
       7809                4000.00    
       7810                4000.00    
       7811                4000.00    
       7812                4000.00    
       7813                4000.00    
       7814                4000.00    
       7815                4000.00    
       7816                4000.00    
       7817                4000.00    
       7818                4000.00    
       7819                4000.00    
       7820                4000.00    
       7821                4000.00    
       7822                4000.00    
       7823                4000.00    
       7824                4000.00    
       7825                4000.00    
       7826                4000.00    
       7827                4000.00    
       7828                4000.00    
       7829                4000.00    
       7830                4000.00    
       7831                4000.00    
       7832                4000.00    
       7833                4000.00    
       7834                4000.00    
       7835                4000.00    
       7836                4000.00    
       7837                4000.00    
       7838                4000.00    
       7839                4000.00    
       7840                4000.00    
       7841                4000.00    
       7842                4000.00    
       7843                4000.00    
       7844                4000.00    
       7845                4000.00    
       7846                4000.00    
       7847                4000.00    
       7848                4000.00    
       7849                4000.00    
       7850                4000.00    
       7851                4000.00    
       7852                4000.00    
       7853                4000.00    
       7854                4000.00    
       7855                4000.00    
       7856                4000.00    
       7857                4000.00    
       7858                4000.00    
       7859                4000.00    
       7860                4000.00    
       7861                4000.00    
       7862                4000.00    
       7863                4000.00    
       7864                4000.00    
       7865                4000.00    
       7866                4000.00    
       7867                4000.00    
       7868                4000.00    
       7869                4000.00    
       7870                4000.00    
       7871                4000.00    
       7872                4000.00    
       7873                4000.00    
       7874                4000.00    
       7875                4000.00    
       7876                4000.00    
       7877                4000.00    
       7878                4000.00    
       7879                4000.00    
       7880                4000.00    
       7881                4000.00    
       7882                4000.00    
       7883                4000.00    
       7884                4000.00    
       7885                4000.00    
       7886                4000.00    
       7887                4000.00    
       7888                4000.00    
       7889                4000.00    
       7890                4000.00    
       7891                4000.00    
       7892                4000.00    
       7893                4000.00    
       7894                4000.00    
       7895                4000.00    
       7896                4000.00    
       7897                4000.00    
       7898                4000.00    
       7899                4000.00    
       7900                4000.00    
       7901                4000.00    
       7902                4000.00    
       7903                4000.00    
       7904                4000.00    
       7905                4000.00    
       7906                4000.00    
       7907                4000.00    
       7908                4000.00    
       7909                4000.00    
       7910                4000.00    
       7911                4000.00    
       7912                4000.00    
       7913                4000.00    
       7914                4000.00    
       7915                4000.00    
       7916                4000.00    
       7917                4000.00    
       7918                4000.00    
       7919                4000.00    
       7920                4000.00    
       7921                4000.00    
       7922                4000.00    
       7923                4000.00    
       7924                4000.00    
       7925                4000.00    
       7926                4000.00    
       7927                4000.00    
       7928                4000.00    
       7929                4000.00    
       7930                4000.00    
       7931                4000.00    
       7932                4000.00    
       7933                4000.00    
       7934                4000.00    
       7935                4000.00    
       7936                4000.00    
       7937                4000.00    
       7938                4000.00    
       7939                4000.00    
       7940                4000.00    
       7941                4000.00    
       7942                4000.00    
       7943                4000.00    
       7944                4000.00    
       7945                4000.00    
       7946                4000.00    
       7947                4000.00    
       7948                4000.00    
       7949                4000.00    
       7950                4000.00    
       7951                4000.00    
       7952                4000.00    
       7953                4000.00    
       7954                4000.00    
       7955                4000.00    
       7956                4000.00    
       7957                4000.00    
       7958                4000.00    
       7959                4000.00    
       7960                4000.00    
       7961                4000.00    
       7962                4000.00    
       7963                4000.00    
       7964                4000.00    
       7965                4000.00    
       7966                4000.00    
       7967                4000.00    
       7968                4000.00    
       7969                4000.00    
       7970                4000.00    
       7971                4000.00    
       7972                4000.00    
       7973                4000.00    
       7974                4000.00    
       7975                4000.00    
       7976                4000.00    
       7977                4000.00    
       7978                4000.00    
       7979                4000.00    
       7980                4000.00    
       7981                4000.00    
       7982                4000.00    
       7983                4000.00    
       7984                4000.00    
       7985                4000.00    
       7986                4000.00    
       7987                4000.00    
       7988                4000.00    
       7989                4000.00    
       7990                4000.00    
       7991                4000.00    
       7992                4000.00    
       7993                4000.00    
       7994                4000.00    
       7995                4000.00    
       7996                4000.00    
       7997                4000.00    
       7998                4000.00    
       7999                4000.00    
       8000                4000.00    
       8001                4000.00    
       8002                4000.00    
       8003                4000.00    
       8004                4000.00    
       8005                4000.00    
       8006                4000.00    
       8007                4000.00    
       8008                4000.00    
       8009                4000.00    
       8010                4000.00    
       8011                4000.00    
       8012                4000.00    
       8013                4000.00    
       8014                4000.00    
       8015                4000.00    
       8016                4000.00    
       8017                4000.00    
       8018                4000.00    
       8019                4000.00    
       8020                4000.00    
       8021                4000.00    
       8022                4000.00    
       8023                4000.00    
       8024                4000.00    
       8025                4000.00    
       8026                4000.00    
       8027                4000.00    
       8028                4000.00    
       8029                4000.00    
       8030                4000.00    
       8031                4000.00    
       8032                4000.00    
       8033                4000.00    
       8034                4000.00    
       8035                4000.00    
       8036                4000.00    
       8037                4000.00    
       8038                4000.00    
       8039                4000.00    
       8040                4000.00    
       8041                4000.00    
       8042                4000.00    
       8043                4000.00    
       8044                4000.00    
       8045                4000.00    
       8046                4000.00    
       8047                4000.00    
       8048                4000.00    
       8049                4000.00    
       8050                4000.00    
       8051                4000.00    
       8052                4000.00    
       8053                4000.00    
       8054                4000.00    
       8055                4000.00    
       8056                4000.00    
       8057                4000.00    
       8058                4000.00    
       8059                4000.00    
       8060                4000.00    
       8061                4000.00    
       8062                4000.00    
       8063                4000.00    
       8064                4000.00    
       8065                4000.00    
       8066                4000.00    
       8067                4000.00    
       8068                4000.00    
       8069                4000.00    
       8070                4000.00    
       8071                4000.00    
       8072                4000.00    
       8073                4000.00    
       8074                4000.00    
       8075                4000.00    
       8076                4000.00    
       8077                4000.00    
       8078                4000.00    
       8079                4000.00    
       8080                4000.00    
       8081                4000.00    
       8082                4000.00    
       8083                4000.00    
       8084                4000.00    
       8085                4000.00    
       8086                4000.00    
       8087                4000.00    
       8088                4000.00    
       8089                4000.00    
       8090                4000.00    
       8091                4000.00    
       8092                4000.00    
       8093                4000.00    
       8094                4000.00    
       8095                4000.00    
       8096                4000.00    
       8097                4000.00    
       8098                4000.00    
       8099                4000.00    
       8100                4000.00    
       8101                4000.00    
       8102                4000.00    
       8103                4000.00    
       8104                4000.00    
       8105                4000.00    
       8106                4000.00    
       8107                4000.00    
       8108                4000.00    
       8109                4000.00    
       8110                4000.00    
       8111                4000.00    
       8112                4000.00    
       8113                4000.00    
       8114                4000.00    
       8115                4000.00    
       8116                4000.00    
       8117                4000.00    
       8118                4000.00    
       8119                4000.00    
       8120                4000.00    
       8121                4000.00    
       8122                4000.00    
       8123                4000.00    
       8124                4000.00    
       8125                4000.00    
       8126                4000.00    
       8127                4000.00    
       8128                4000.00    
       8129                4000.00    
       8130                4000.00    
       8131                4000.00    
       8132                4000.00    
       8133                4000.00    
       8134                4000.00    
       8135                4000.00    
       8136                4000.00    
       8137                4000.00    
       8138                4000.00    
       8139                4000.00    
       8140                4000.00    
       8141                4000.00    
       8142                4000.00    
       8143                4000.00    
       8144                4000.00    
       8145                4000.00    
       8146                4000.00    
       8147                4000.00    
       8148                4000.00    
       8149                4000.00    
       8150                4000.00    
       8151                4000.00    
       8152                4000.00    
       8153                4000.00    
       8154                4000.00    
       8155                4000.00    
       8156                4000.00    
       8157                4000.00    
       8158                4000.00    
       8159                4000.00    
       8160                4000.00    
       8161                4000.00    
       8162                4000.00    
       8163                4000.00    
       8164                4000.00    
       8165                4000.00    
       8166                4000.00    
       8167                4000.00    
       8168                4000.00    
       8169                4000.00    
       8170                4000.00    
       8171                4000.00    
       8172                4000.00    
       8173                4000.00    
       8174                4000.00    
       8175                4000.00    
       8176                4000.00    
       8177                4000.00    
       8178                4000.00    
       8179                4000.00    
       8180                4000.00    
       8181                4000.00    
       8182                4000.00    
       8183                4000.00    
       8184                4000.00    
       8185                4000.00    
       8186                4000.00    
       8187                4000.00    
       8188                4000.00    
       8189                4000.00    
       8190                4000.00    
       8191                4000.00    
       8192                4000.00    
       8193                4000.00    
       8194                4000.00    
       8195                4000.00    
       8196                4000.00    
       8197                4000.00    
       8198                4000.00    
       8199                4000.00    
       8200                4000.00    
       8201                4000.00    
       8202                4000.00    
       8203                4000.00    
       8204                4000.00    
       8205                4000.00    
       8206                4000.00    
       8207                4000.00    
       8208                4000.00    
       8209                4000.00    
       8210                4000.00    
       8211                4000.00    
       8212                4000.00    
       8213                4000.00    
       8214                4000.00    
       8215                4000.00    
       8216                4000.00    
       8217                4000.00    
       8218                4000.00    
       8219                4000.00    
       8220                4000.00    
       8221                4000.00    
       8222                4000.00    
       8223                4000.00    
       8224                4000.00    
       8225                4000.00    
       8226                4000.00    
       8227                4000.00    
       8228                4000.00    
       8229                4000.00    
       8230                4000.00    
       8231                4000.00    
       8232                4000.00    
       8233                4000.00    
       8234                4000.00    
       8235                4000.00    
       8236                4000.00    
       8237                4000.00    
       8238                4000.00    
       8239                4000.00    
       8240                4000.00    
       8241                4000.00    
       8242                4000.00    
       8243                4000.00    
       8244                4000.00    
       8245                4000.00    
       8246                4000.00    
       8247                4000.00    
       8248                4000.00    
       8249                4000.00    
       8250                4000.00    
       8251                4000.00    
       8252                4000.00    
       8253                4000.00    
       8254                4000.00    
       8255                4000.00    
       8256                4000.00    
       8257                4000.00    
       8258                4000.00    
       8259                4000.00    
       8260                4000.00    
       8261                4000.00    
       8262                4000.00    
       8263                4000.00    
       8264                4000.00    
       8265                4000.00    
       8266                4000.00    
       8267                4000.00    
       8268                4000.00    
       8269                4000.00    
       8270                4000.00    
       8271                4000.00    
       8272                4000.00    
       8273                4000.00    
       8274                4000.00    
       8275                4000.00    
       8276                4000.00    
       8277                4000.00    
       8278                4000.00    
       8279                4000.00    
       8280                4000.00    
       8281                4000.00    
       8282                4000.00    
       8283                4000.00    
       8284                4000.00    
       8285                4000.00    
       8286                4000.00    
       8287                4000.00    
       8288                4000.00    
       8289                4000.00    
       8290                4000.00    
       8291                4000.00    
       8292                4000.00    
       8293                4000.00    
       8294                4000.00    
       8295                4000.00    
       8296                4000.00    
       8297                4000.00    
       8298                4000.00    
       8299                4000.00    
       8300                4000.00    
       8301                4000.00    
       8302                4000.00    
       8303                4000.00    
       8304                4000.00    
       8305                4000.00    
       8306                4000.00    
       8307                4000.00    
       8308                4000.00    
       8309                4000.00    
       8310                4000.00    
       8311                4000.00    
       8312                4000.00    
       8313                4000.00    
       8314                4000.00    
       8315                4000.00    
       8316                4000.00    
       8317                4000.00    
       8318                4000.00    
       8319                4000.00    
       8320                4000.00    
       8321                4000.00    
       8322                4000.00    
       8323                4000.00    
       8324                4000.00    
       8325                4000.00    
       8326                4000.00    
       8327                4000.00    
       8328                4000.00    
       8329                4000.00    
       8330                4000.00    
       8331                4000.00    
       8332                4000.00    
       8333                4000.00    
       8334                4000.00    
       8335                4000.00    
       8336                4000.00    
       8337                4000.00    
       8338                4000.00    
       8339                4000.00    
       8340                4000.00    
       8341                4000.00    
       8342                4000.00    
       8343                4000.00    
       8344                4000.00    
       8345                4000.00    
       8346                4000.00    
       8347                4000.00    
       8348                4000.00    
       8349                4000.00    
       8350                4000.00    
       8351                4000.00    
       8352                4000.00    
       8353                4000.00    
       8354                4000.00    
       8355                4000.00    
       8356                4000.00    
       8357                4000.00    
       8358                4000.00    
       8359                4000.00    
       8360                4000.00    
       8361                4000.00    
       8362                4000.00    
       8363                4000.00    
       8364                4000.00    
       8365                4000.00    
       8366                4000.00    
       8367                4000.00    
       8368                4000.00    
       8369                4000.00    
       8370                4000.00    
       8371                4000.00    
       8372                4000.00    
       8373                4000.00    
       8374                4000.00    
       8375                4000.00    
       8376                4000.00    
       8377                4000.00    
       8378                4000.00    
       8379                4000.00    
       8380                4000.00    
       8381                4000.00    
       8382                4000.00    
       8383                4000.00    
       8384                4000.00    
       8385                4000.00    
       8386                4000.00    
       8387                4000.00    
       8388                4000.00    
       8389                4000.00    
       8390                4000.00    
       8391                4000.00    
       8392                4000.00    
       8393                4000.00    
       8394                4000.00    
       8395                4000.00    
       8396                4000.00    
       8397                4000.00    
       8398                4000.00    
       8399                4000.00    
       8400                4000.00    
       8401                4000.00    
       8402                4000.00    
       8403                4000.00    
       8404                4000.00    
       8405                4000.00    
       8406                4000.00    
       8407                4000.00    
       8408                4000.00    
       8409                4000.00    
       8410                4000.00    
       8411                4000.00    
       8412                4000.00    
       8413                4000.00    
       8414                4000.00    
       8415                4000.00    
       8416                4000.00    
       8417                4000.00    
       8418                4000.00    
       8419                4000.00    
       8420                4000.00    
       8421                4000.00    
       8422                4000.00    
       8423                4000.00    
       8424                4000.00    
       8425                4000.00    
       8426                4000.00    
       8427                4000.00    
       8428                4000.00    
       8429                4000.00    
       8430                4000.00    
       8431                4000.00    
       8432                4000.00    
       8433                4000.00    
       8434                4000.00    
       8435                4000.00    
       8436                4000.00    
       8437                4000.00    
       8438                4000.00    
       8439                4000.00    
       8440                4000.00    
       8441                4000.00    
       8442                4000.00    
       8443                4000.00    
       8444                4000.00    
       8445                4000.00    
       8446                4000.00    
       8447                4000.00    
       8448                4000.00    
       8449                4000.00    
       8450                4000.00    
       8451                4000.00    
       8452                4000.00    
       8453                4000.00    
       8454                4000.00    
       8455                4000.00    
       8456                4000.00    
       8457                4000.00    
       8458                4000.00    
       8459                4000.00    
       8460                4000.00    
       8461                4000.00    
       8462                4000.00    
       8463                4000.00    
       8464                4000.00    
       8465                4000.00    
       8466                4000.00    
       8467                4000.00    
       8468                4000.00    
       8469                4000.00    
       8470                4000.00    
       8471                4000.00    
       8472                4000.00    
       8473                4000.00    
       8474                4000.00    
       8475                4000.00    
       8476                4000.00    
       8477                4000.00    
       8478                4000.00    
       8479                4000.00    
       8480                4000.00    
       8481                4000.00    
       8482                4000.00    
       8483                4000.00    
       8484                4000.00    
       8485                4000.00    
       8486                4000.00    
       8487                4000.00    
       8488                4000.00    
       8489                4000.00    
       8490                4000.00    
       8491                4000.00    
       8492                4000.00    
       8493                4000.00    
       8494                4000.00    
       8495                4000.00    
       8496                4000.00    
       8497                4000.00    
       8498                4000.00    
       8499                4000.00    
       8500                4000.00    
       8501                4000.00    
       8502                4000.00    
       8503                4000.00    
       8504                4000.00    
       8505                4000.00    
       8506                4000.00    
       8507                4000.00    
       8508                4000.00    
       8509                4000.00    
       8510                4000.00    
       8511                4000.00    
       8512                4000.00    
       8513                4000.00    
       8514                4000.00    
       8515                4000.00    
       8516                4000.00    
       8517                4000.00    
       8518                4000.00    
       8519                4000.00    
       8520                4000.00    
       8521                4000.00    
       8522                4000.00    
       8523                4000.00    
       8524                4000.00    
       8525                4000.00    
       8526                4000.00    
       8527                4000.00    
       8528                4000.00    
       8529                4000.00    
       8530                4000.00    
       8531                4000.00    
       8532                4000.00    
       8533                4000.00    
       8534                4000.00    
       8535                4000.00    
       8536                4000.00    
       8537                4000.00    
       8538                4000.00    
       8539                4000.00    
       8540                4000.00    
       8541                4000.00    
       8542                4000.00    
       8543                4000.00    
       8544                4000.00    
       8545                4000.00    
       8546                4000.00    
       8547                4000.00    
       8548                4000.00    
       8549                4000.00    
       8550                4000.00    
       8551                4000.00    
       8552                4000.00    
       8553                4000.00    
       8554                4000.00    
       8555                4000.00    
       8556                4000.00    
       8557                4000.00    
       8558                4000.00    
       8559                4000.00    
       8560                4000.00    
       8561                4000.00    
       8562                4000.00    
       8563                4000.00    
       8564                4000.00    
       8565                4000.00    
       8566                4000.00    
       8567                4000.00    
       8568                4000.00    
       8569                4000.00    
       8570                4000.00    
       8571                4000.00    
       8572                4000.00    
       8573                4000.00    
       8574                4000.00    
       8575                4000.00    
       8576                4000.00    
       8577                4000.00    
       8578                4000.00    
       8579                4000.00    
       8580                4000.00    
       8581                4000.00    
       8582                4000.00    
       8583                4000.00    
       8584                4000.00    
       8585                4000.00    
       8586                4000.00    
       8587                4000.00    
       8588                4000.00    
       8589                4000.00    
       8590                4000.00    
       8591                4000.00    
       8592                4000.00    
       8593                4000.00    
       8594                4000.00    
       8595                4000.00    
       8596                4000.00    
       8597                4000.00    
       8598                4000.00    
       8599                4000.00    
       8600                4000.00    
       8601                4000.00    
       8602                4000.00    
       8603                4000.00    
       8604                4000.00    
       8605                4000.00    
       8606                4000.00    
       8607                4000.00    
       8608                4000.00    
       8609                4000.00    
       8610                4000.00    
       8611                4000.00    
       8612                4000.00    
       8613                4000.00    
       8614                4000.00    
       8615                4000.00    
       8616                4000.00    
       8617                4000.00    
       8618                4000.00    
       8619                4000.00    
       8620                4000.00    
       8621                4000.00    
       8622                4000.00    
       8623                4000.00    
       8624                4000.00    
       8625                4000.00    
       8626                4000.00    
       8627                4000.00    
       8628                4000.00    
       8629                4000.00    
       8630                4000.00    
       8631                4000.00    
       8632                4000.00    
       8633                4000.00    
       8634                4000.00    
       8635                4000.00    
       8636                4000.00    
       8637                4000.00    
       8638                4000.00    
       8639                4000.00    
       8640                4000.00    
       8641                4000.00    
       8642                4000.00    
       8643                4000.00    
       8644                4000.00    
       8645                4000.00    
       8646                4000.00    
       8647                4000.00    
       8648                4000.00    
       8649                4000.00    
       8650                4000.00    
       8651                4000.00    
       8652                4000.00    
       8653                4000.00    
       8654                4000.00    
       8655                4000.00    
       8656                4000.00    
       8657                4000.00    
       8658                4000.00    
       8659                4000.00    
       8660                4000.00    
       8661                4000.00    
       8662                4000.00    
       8663                4000.00    
       8664                4000.00    
       8665                4000.00    
       8666                4000.00    
       8667                4000.00    
       8668                4000.00    
       8669                4000.00    
       8670                4000.00    
       8671                4000.00    
       8672                4000.00    
       8673                4000.00    
       8674                4000.00    
       8675                4000.00    
       8676                4000.00    
       8677                4000.00    
       8678                4000.00    
       8679                4000.00    
       8680                4000.00    
       8681                4000.00    
       8682                4000.00    
       8683                4000.00    
       8684                4000.00    
       8685                4000.00    
       8686                4000.00    
       8687                4000.00    
       8688                4000.00    
       8689                4000.00    
       8690                4000.00    
       8691                4000.00    
       8692                4000.00    
       8693                4000.00    
       8694                4000.00    
       8695                4000.00    
       8696                4000.00    
       8697                4000.00    
       8698                4000.00    
       8699                4000.00    
       8700                4000.00    
       8701                4000.00    
       8702                4000.00    
       8703                4000.00    
       8704                4000.00    
       8705                4000.00    
       8706                4000.00    
       8707                4000.00    
       8708                4000.00    
       8709                4000.00    
       8710                4000.00    
       8711                4000.00    
       8712                4000.00    
       8713                4000.00    
       8714                4000.00    
       8715                4000.00    
       8716                4000.00    
       8717                4000.00    
       8718                4000.00    
       8719                4000.00    
       8720                4000.00    
       8721                4000.00    
       8722                4000.00    
       8723                4000.00    
       8724                4000.00    
       8725                4000.00    
       8726                4000.00    
       8727                4000.00    
       8728                4000.00    
       8729                4000.00    
       8730                4000.00    
       8731                4000.00    
       8732                4000.00    
       8733                4000.00    
       8734                4000.00    
       8735                4000.00    
       8736                4000.00    
       8737                4000.00    
       8738                4000.00    
       8739                4000.00    
       8740                4000.00    
       8741                4000.00    
       8742                4000.00    
       8743                4000.00    
       8744                4000.00    
       8745                4000.00    
       8746                4000.00    
       8747                4000.00    
       8748                4000.00    
       8749                4000.00    
       8750                4000.00    
       8751                4000.00    
       8752                4000.00    
       8753                4000.00    
       8754                4000.00    
       8755                4000.00    
       8756                4000.00    
       8757                4000.00    
       8758                4000.00    
       8759                4000.00    
       8760                4000.00    
       8761                4000.00    
       8762                4000.00    
       8763                4000.00    
       8764                4000.00    
       8765                4000.00    
       8766                4000.00    
       8767                4000.00    
       8768                4000.00    
       8769                4000.00    
       8770                4000.00    
       8771                4000.00    
       8772                4000.00    
       8773                4000.00    
       8774                4000.00    
       8775                4000.00    
       8776                4000.00    
       8777                4000.00    
       8778                4000.00    
       8779                4000.00    
       8780                4000.00    
       8781                4000.00    
       8782                4000.00    
       8783                4000.00    
       8784                4000.00    
       8785                4000.00    
       8786                4000.00    
       8787                4000.00    
       8788                4000.00    
       8789                4000.00    
       8790                4000.00    
       8791                4000.00    
       8792                4000.00    
       8793                4000.00    
       8794                4000.00    
       8795                4000.00    
       8796                4000.00    
       8797                4000.00    
       8798                4000.00    
       8799                4000.00    
       8800                4000.00    
       8801                4000.00    
       8802                4000.00    
       8803                4000.00    
       8804                4000.00    
       8805                4000.00    
       8806                4000.00    
       8807                4000.00    
       8808                4000.00    
       8809                4000.00    
       8810                4000.00    
       8811                4000.00    
       8812                4000.00    
       8813                4000.00    
       8814                4000.00    
       8815                4000.00    
       8816                4000.00    
       8817                4000.00    
       8818                4000.00    
       8819                4000.00    
       8820                4000.00    
       8821                4000.00    
       8822                4000.00    
       8823                4000.00    
       8824                4000.00    
       8825                4000.00    
       8826                4000.00    
       8827                4000.00    
       8828                4000.00    
       8829                4000.00    
       8830                4000.00    
       8831                4000.00    
       8832                4000.00    
       8833                4000.00    
       8834                4000.00    
       8835                4000.00    
       8836                4000.00    
       8837                4000.00    
       8838                4000.00    
       8839                4000.00    
       8840                4000.00    
       8841                4000.00    
       8842                4000.00    
       8843                4000.00    
       8844                4000.00    
       8845                4000.00    
       8846                4000.00    
       8847                4000.00    
       8848                4000.00    
       8849                4000.00    
       8850                4000.00    
       8851                4000.00    
       8852                4000.00    
       8853                4000.00    
       8854                4000.00    
       8855                4000.00    
       8856                4000.00    
       8857                4000.00    
       8858                4000.00    
       8859                4000.00    
       8860                4000.00    
       8861                4000.00    
       8862                4000.00    
       8863                4000.00    
       8864                4000.00    
       8865                4000.00    
       8866                4000.00    
       8867                4000.00    
       8868                4000.00    
       8869                4000.00    
       8870                4000.00    
       8871                4000.00    
       8872                4000.00    
       8873                4000.00    
       8874                4000.00    
       8875                4000.00    
       8876                4000.00    
       8877                4000.00    
       8878                4000.00    
       8879                4000.00    
       8880                4000.00    
       8881                4000.00    
       8882                4000.00    
       8883                4000.00    
       8884                4000.00    
       8885                4000.00    
       8886                4000.00    
       8887                4000.00    
       8888                4000.00    
       8889                4000.00    
       8890                4000.00    
       8891                4000.00    
       8892                4000.00    
       8893                4000.00    
       8894                4000.00    
       8895                4000.00    
       8896                4000.00    
       8897                4000.00    
       8898                4000.00    
       8899                4000.00    
       8900                4000.00    
       8901                4000.00    
       8902                4000.00    
       8903                4000.00    
       8904                4000.00    
       8905                4000.00    
       8906                4000.00    
       8907                4000.00    
       8908                4000.00    
       8909                4000.00    
       8910                4000.00    
       8911                4000.00    
       8912                4000.00    
       8913                4000.00    
       8914                4000.00    
       8915                4000.00    
       8916                4000.00    
       8917                4000.00    
       8918                4000.00    
       8919                4000.00    
       8920                4000.00    
       8921                4000.00    
       8922                4000.00    
       8923                4000.00    
       8924                4000.00    
       8925                4000.00    
       8926                4000.00    
       8927                4000.00    
       8928                4000.00    
       8929                4000.00    
       8930                4000.00    
       8931                4000.00    
       8932                4000.00    
       8933                4000.00    
       8934                4000.00    
       8935                4000.00    
       8936                4000.00    
       8937                4000.00    
       8938                4000.00    
       8939                4000.00    
       8940                4000.00    
       8941                4000.00    
       8942                4000.00    
       8943                4000.00    
       8944                4000.00    
       8945                4000.00    
       8946                4000.00    
       8947                4000.00    
       8948                4000.00    
       8949                4000.00    
       8950                4000.00    
       8951                4000.00    
       8952                4000.00    
       8953                4000.00    
       8954                4000.00    
       8955                4000.00    
       8956                4000.00    
       8957                4000.00    
       8958                4000.00    
       8959                4000.00    
       8960                4000.00    
       8961                4000.00    
       8962                4000.00    
       8963                4000.00    
       8964                4000.00    
       8965                4000.00    
       8966                4000.00    
       8967                4000.00    
       8968                4000.00    
       8969                4000.00    
       8970                4000.00    
       8971                4000.00    
       8972                4000.00    
       8973                4000.00    
       8974                4000.00    
       8975                4000.00    
       8976                4000.00    
       8977                4000.00    
       8978                4000.00    
       8979                4000.00    
       8980                4000.00    
       8981                4000.00    
       8982                4000.00    
       8983                4000.00    
       8984                4000.00    
       8985                4000.00    
       8986                4000.00    
       8987                4000.00    
       8988                4000.00    
       8989                4000.00    
       8990                4000.00    
       8991                4000.00    
       8992                4000.00    
       8993                4000.00    
       8994                4000.00    
       8995                4000.00    
       8996                4000.00    
       8997                4000.00    
       8998                4000.00    
       8999                4000.00    
       9000                4000.00    
       9001                4000.00    
       9002                4000.00    
       9003                4000.00    
       9004                4000.00    
       9005                4000.00    
       9006                4000.00    
       9007                4000.00    
       9008                4000.00    
       9009                4000.00    
       9010                4000.00    
       9011                4000.00    
       9012                4000.00    
       9013                4000.00    
       9014                4000.00    
       9015                4000.00    
       9016                4000.00    
       9017                4000.00    
       9018                4000.00    
       9019                4000.00    
       9020                4000.00    
       9021                4000.00    
       9022                4000.00    
       9023                4000.00    
       9024                4000.00    
       9025                4000.00    
       9026                4000.00    
       9027                4000.00    
       9028                4000.00    
       9029                4000.00    
       9030                4000.00    
       9031                4000.00    
       9032                4000.00    
       9033                4000.00    
       9034                4000.00    
       9035                4000.00    
       9036                4000.00    
       9037                4000.00    
       9038                4000.00    
       9039                4000.00    
       9040                4000.00    
       9041                4000.00    
       9042                4000.00    
       9043                4000.00    
       9044                4000.00    
       9045                4000.00    
       9046                4000.00    
       9047                4000.00    
       9048                4000.00    
       9049                4000.00    
       9050                4000.00    
       9051                4000.00    
       9052                4000.00    
       9053                4000.00    
       9054                4000.00    
       9055                4000.00    
       9056                4000.00    
       9057                4000.00    
       9058                4000.00    
       9059                4000.00    
       9060                4000.00    
       9061                4000.00    
       9062                4000.00    
       9063                4000.00    
       9064                4000.00    
       9065                4000.00    
       9066                4000.00    
       9067                4000.00    
       9068                4000.00    
       9069                4000.00    
       9070                4000.00    
       9071                4000.00    
       9072                4000.00    
       9073                4000.00    
       9074                4000.00    
       9075                4000.00    
       9076                4000.00    
       9077                4000.00    
       9078                4000.00    
       9079                4000.00    
       9080                4000.00    
       9081                4000.00    
       9082                4000.00    
       9083                4000.00    
       9084                4000.00    
       9085                4000.00    
       9086                4000.00    
       9087                4000.00    
       9088                4000.00    
       9089                4000.00    
       9090                4000.00    
       9091                4000.00    
       9092                4000.00    
       9093                4000.00    
       9094                4000.00    
       9095                4000.00    
       9096                4000.00    
       9097                4000.00    
       9098                4000.00    
       9099                4000.00    
       9100                4000.00    
       9101                4000.00    
       9102                4000.00    
       9103                4000.00    
       9104                4000.00    
       9105                4000.00    
       9106                4000.00    
       9107                4000.00    
       9108                4000.00    
       9109                4000.00    
       9110                4000.00    
       9111                4000.00    
       9112                4000.00    
       9113                4000.00    
       9114                4000.00    
       9115                4000.00    
       9116                4000.00    
       9117                4000.00    
       9118                4000.00    
       9119                4000.00    
       9120                4000.00    
       9121                4000.00    
       9122                4000.00    
       9123                4000.00    
       9124                4000.00    
       9125                4000.00    
       9126                4000.00    
       9127                4000.00    
       9128                4000.00    
       9129                4000.00    
       9130                4000.00    
       9131                4000.00    
       9132                4000.00    
       9133                4000.00    
       9134                4000.00    
       9135                4000.00    
       9136                4000.00    
       9137                4000.00    
       9138                4000.00    
       9139                4000.00    
       9140                4000.00    
       9141                4000.00    
       9142                4000.00    
       9143                4000.00    
       9144                4000.00    
       9145                4000.00    
       9146                4000.00    
       9147                4000.00    
       9148                4000.00    
       9149                4000.00    
       9150                4000.00    
       9151                4000.00    
       9152                4000.00    
       9153                4000.00    
       9154                4000.00    
       9155                4000.00    
       9156                4000.00    
       9157                4000.00    
       9158                4000.00    
       9159                4000.00    
       9160                4000.00    
       9161                4000.00    
       9162                4000.00    
       9163                4000.00    
       9164                4000.00    
       9165                4000.00    
       9166                4000.00    
       9167                4000.00    
       9168                4000.00    
       9169                4000.00    
       9170                4000.00    
       9171                4000.00    
       9172                4000.00    
       9173                4000.00    
       9174                4000.00    
       9175                4000.00    
       9176                4000.00    
       9177                4000.00    
       9178                4000.00    
       9179                4000.00    
       9180                4000.00    
       9181                4000.00    
       9182                4000.00    
       9183                4000.00    
       9184                4000.00    
       9185                4000.00    
       9186                4000.00    
       9187                4000.00    
       9188                4000.00    
       9189                4000.00    
       9190                4000.00    
       9191                4000.00    
       9192                4000.00    
       9193                4000.00    
       9194                4000.00    
       9195                4000.00    
       9196                4000.00    
       9197                4000.00    
       9198                4000.00    
       9199                4000.00    
       9200                4000.00    
       9201                4000.00    
       9202                4000.00    
       9203                4000.00    
       9204                4000.00    
       9205                4000.00    
       9206                4000.00    
       9207                4000.00    
       9208                4000.00    
       9209                4000.00    
       9210                4000.00    
       9211                4000.00    
       9212                4000.00    
       9213                4000.00    
       9214                4000.00    
       9215                4000.00    
       9216                4000.00    
       9217                4000.00    
       9218                4000.00    
       9219                4000.00    
       9220                4000.00    
       9221                4000.00    
       9222                4000.00    
       9223                4000.00    
       9224                4000.00    
       9225                4000.00    
       9226                4000.00    
       9227                4000.00    
       9228                4000.00    
       9229                4000.00    
       9230                4000.00    
       9231                4000.00    
       9232                4000.00    
       9233                4000.00    
       9234                4000.00    
       9235                4000.00    
       9236                4000.00    
       9237                4000.00    
       9238                4000.00    
       9239                4000.00    
       9240                4000.00    
       9241                4000.00    
       9242                4000.00    
       9243                4000.00    
       9244                4000.00    
       9245                4000.00    
       9246                4000.00    
       9247                4000.00    
       9248                4000.00    
       9249                4000.00    
       9250                4000.00    
       9251                4000.00    
       9252                4000.00    
       9253                4000.00    
       9254                4000.00    
       9255                4000.00    
       9256                4000.00    
       9257                4000.00    
       9258                4000.00    
       9259                4000.00    
       9260                4000.00    
       9261                4000.00    
       9262                4000.00    
       9263                4000.00    
       9264                4000.00    
       9265                4000.00    
       9266                4000.00    
       9267                4000.00    
       9268                4000.00    
       9269                4000.00    
       9270                4000.00    
       9271                4000.00    
       9272                4000.00    
       9273                4000.00    
       9274                4000.00    
       9275                4000.00    
       9276                4000.00    
       9277                4000.00    
       9278                4000.00    
       9279                4000.00    
       9280                4000.00    
       9281                4000.00    
       9282                4000.00    
       9283                4000.00    
       9284                4000.00    
       9285                4000.00    
       9286                4000.00    
       9287                4000.00    
       9288                4000.00    
       9289                4000.00    
       9290                4000.00    
       9291                4000.00    
       9292                4000.00    
       9293                4000.00    
       9294                4000.00    
       9295                4000.00    
       9296                4000.00    
       9297                4000.00    
       9298                4000.00    
       9299                4000.00    
       9300                4000.00    
       9301                4000.00    
       9302                4000.00    
       9303                4000.00    
       9304                4000.00    
       9305                4000.00    
       9306                4000.00    
       9307                4000.00    
       9308                4000.00    
       9309                4000.00    
       9310                4000.00    
       9311                4000.00    
       9312                4000.00    
       9313                4000.00    
       9314                4000.00    
       9315                4000.00    
       9316                4000.00    
       9317                4000.00    
       9318                4000.00    
       9319                4000.00    
       9320                4000.00    
       9321                4000.00    
       9322                4000.00    
       9323                4000.00    
       9324                4000.00    
       9325                4000.00    
       9326                4000.00    
       9327                4000.00    
       9328                4000.00    
       9329                4000.00    
       9330                4000.00    
       9331                4000.00    
       9332                4000.00    
       9333                4000.00    
       9334                4000.00    
       9335                4000.00    
       9336                4000.00    
       9337                4000.00    
       9338                4000.00    
       9339                4000.00    
       9340                4000.00    
       9341                4000.00    
       9342                4000.00    
       9343                4000.00    
       9344                4000.00    
       9345                4000.00    
       9346                4000.00    
       9347                4000.00    
       9348                4000.00    
       9349                4000.00    
       9350                4000.00    
       9351                4000.00    
       9352                4000.00    
       9353                4000.00    
       9354                4000.00    
       9355                4000.00    
       9356                4000.00    
       9357                4000.00    
       9358                4000.00    
       9359                4000.00    
       9360                4000.00    
       9361                4000.00    
       9362                4000.00    
       9363                4000.00    
       9364                4000.00    
       9365                4000.00    
       9366                4000.00    
       9367                4000.00    
       9368                4000.00    
       9369                4000.00    
       9370                4000.00    
       9371                4000.00    
       9372                4000.00    
       9373                4000.00    
       9374                4000.00    
       9375                4000.00    
       9376                4000.00    
       9377                4000.00    
       9378                4000.00    
       9379                4000.00    
       9380                4000.00    
       9381                4000.00    
       9382                4000.00    
       9383                4000.00    
       9384                4000.00    
       9385                4000.00    
       9386                4000.00    
       9387                4000.00    
       9388                4000.00    
       9389                4000.00    
       9390                4000.00    
       9391                4000.00    
       9392                4000.00    
       9393                4000.00    
       9394                4000.00    
       9395                4000.00    
       9396                4000.00    
       9397                4000.00    
       9398                4000.00    
       9399                4000.00    
       9400                4000.00    
       9401                4000.00    
       9402                4000.00    
       9403                4000.00    
       9404                4000.00    
       9405                4000.00    
       9406                4000.00    
       9407                4000.00    
       9408                4000.00    
       9409                4000.00    
       9410                4000.00    
       9411                4000.00    
       9412                4000.00    
       9413                4000.00    
       9414                4000.00    
       9415                4000.00    
       9416                4000.00    
       9417                4000.00    
       9418                4000.00    
       9419                4000.00    
       9420                4000.00    
       9421                4000.00    
       9422                4000.00    
       9423                4000.00    
       9424                4000.00    
       9425                4000.00    
       9426                4000.00    
       9427                4000.00    
       9428                4000.00    
       9429                4000.00    
       9430                4000.00    
       9431                4000.00    
       9432                4000.00    
       9433                4000.00    
       9434                4000.00    
       9435                4000.00    
       9436                4000.00    
       9437                4000.00    
       9438                4000.00    
       9439                4000.00    
       9440                4000.00    
       9441                4000.00    
       9442                4000.00    
       9443                4000.00    
       9444                4000.00    
       9445                4000.00    
       9446                4000.00    
       9447                4000.00    
       9448                4000.00    
       9449                4000.00    
       9450                4000.00    
       9451                4000.00    
       9452                4000.00    
       9453                4000.00    
       9454                4000.00    
       9455                4000.00    
       9456                4000.00    
       9457                4000.00    
       9458                4000.00    
       9459                4000.00    
       9460                4000.00    
       9461                4000.00    
       9462                4000.00    
       9463                4000.00    
       9464                4000.00    
       9465                4000.00    
       9466                4000.00    
       9467                4000.00    
       9468                4000.00    
       9469                4000.00    
       9470                4000.00    
       9471                4000.00    
       9472                4000.00    
       9473                4000.00    
       9474                4000.00    
       9475                4000.00    
       9476                4000.00    
       9477                4000.00    
       9478                4000.00    
       9479                4000.00    
       9480                4000.00    
       9481                4000.00    
       9482                4000.00    
       9483                4000.00    
       9484                4000.00    
       9485                4000.00    
       9486                4000.00    
       9487                4000.00    
       9488                4000.00    
       9489                4000.00    
       9490                4000.00    
       9491                4000.00    
       9492                4000.00    
       9493                4000.00    
       9494                4000.00    
       9495                4000.00    
       9496                4000.00    
       9497                4000.00    
       9498                4000.00    
       9499                4000.00    
       9500                4000.00    
       9501                4000.00    
       9502                4000.00    
       9503                4000.00    
       9504                4000.00    
       9505                4000.00    
       9506                4000.00    
       9507                4000.00    
       9508                4000.00    
       9509                4000.00    
       9510                4000.00    
       9511                4000.00    
       9512                4000.00    
       9513                4000.00    
       9514                4000.00    
       9515                4000.00    
       9516                4000.00    
       9517                4000.00    
       9518                4000.00    
       9519                4000.00    
       9520                4000.00    
       9521                4000.00    
       9522                4000.00    
       9523                4000.00    
       9524                4000.00    
       9525                4000.00    
       9526                4000.00    
       9527                4000.00    
       9528                4000.00    
       9529                4000.00    
       9530                4000.00    
       9531                4000.00    
       9532                4000.00    
       9533                4000.00    
       9534                4000.00    
       9535                4000.00    
       9536                4000.00    
       9537                4000.00    
       9538                4000.00    
       9539                4000.00    
       9540                4000.00    
       9541                4000.00    
       9542                4000.00    
       9543                4000.00    
       9544                4000.00    
       9545                4000.00    
       9546                4000.00    
       9547                4000.00    
       9548                4000.00    
       9549                4000.00    
       9550                4000.00    
       9551                4000.00    
       9552                4000.00    
       9553                4000.00    
       9554                4000.00    
       9555                4000.00    
       9556                4000.00    
       9557                4000.00    
       9558                4000.00    
       9559                4000.00    
       9560                4000.00    
       9561                4000.00    
       9562                4000.00    
       9563                4000.00    
       9564                4000.00    
       9565                4000.00    
       9566                4000.00    
       9567                4000.00    
       9568                4000.00    
       9569                4000.00    
       9570                4000.00    
       9571                4000.00    
       9572                4000.00    
       9573                4000.00    
       9574                4000.00    
       9575                4000.00    
       9576                4000.00    
       9577                4000.00    
       9578                4000.00    
       9579                4000.00    
       9580                4000.00    
       9581                4000.00    
       9582                4000.00    
       9583                4000.00    
       9584                4000.00    
       9585                4000.00    
       9586                4000.00    
       9587                4000.00    
       9588                4000.00    
       9589                4000.00    
       9590                4000.00    
       9591                4000.00    
       9592                4000.00    
       9593                4000.00    
       9594                4000.00    
       9595                4000.00    
       9596                4000.00    
       9597                4000.00    
       9598                4000.00    
       9599                4000.00    
       9600                4000.00    
       9601                4000.00    
       9602                4000.00    
       9603                4000.00    
       9604                4000.00    
       9605                4000.00    
       9606                4000.00    
       9607                4000.00    
       9608                4000.00    
       9609                4000.00    
       9610                4000.00    
       9611                4000.00    
       9612                4000.00    
       9613                4000.00    
       9614                4000.00    
       9615                4000.00    
       9616                4000.00    
       9617                4000.00    
       9618                4000.00    
       9619                4000.00    
       9620                4000.00    
       9621                4000.00    
       9622                4000.00    
       9623                4000.00    
       9624                4000.00    
       9625                4000.00    
       9626                4000.00    
       9627                4000.00    
       9628                4000.00    
       9629                4000.00    
       9630                4000.00    
       9631                4000.00    
       9632                4000.00    
       9633                4000.00    
       9634                4000.00    
       9635                4000.00    
       9636                4000.00    
       9637                4000.00    
       9638                4000.00    
       9639                4000.00    
       9640                4000.00    
       9641                4000.00    
       9642                4000.00    
       9643                4000.00    
       9644                4000.00    
       9645                4000.00    
       9646                4000.00    
       9647                4000.00    
       9648                4000.00    
       9649                4000.00    
       9650                4000.00    
       9651                4000.00    
       9652                4000.00    
       9653                4000.00    
       9654                4000.00    
       9655                4000.00    
       9656                4000.00    
       9657                4000.00    
       9658                4000.00    
       9659                4000.00    
       9660                4000.00    
       9661                4000.00    
       9662                4000.00    
       9663                4000.00    
       9664                4000.00    
       9665                4000.00    
       9666                4000.00    
       9667                4000.00    
       9668                4000.00    
       9669                4000.00    
       9670                4000.00    
       9671                4000.00    
       9672                4000.00    
       9673                4000.00    
       9674                4000.00    
       9675                4000.00    
       9676                4000.00    
       9677                4000.00    
       9678                4000.00    
       9679                4000.00    
       9680                4000.00    
       9681                4000.00    
       9682                4000.00    
       9683                4000.00    
       9684                4000.00    
       9685                4000.00    
       9686                4000.00    
       9687                4000.00    
       9688                4000.00    
       9689                4000.00    
       9690                4000.00    
       9691                4000.00    
       9692                4000.00    
       9693                4000.00    
       9694                4000.00    
       9695                4000.00    
       9696                4000.00    
       9697                4000.00    
       9698                4000.00    
       9699                4000.00    
       9700                4000.00    
       9701                4000.00    
       9702                4000.00    
       9703                4000.00    
       9704                4000.00    
       9705                4000.00    
       9706                4000.00    
       9707                4000.00    
       9708                4000.00    
       9709                4000.00    
       9710                4000.00    
       9711                4000.00    
       9712                4000.00    
       9713                4000.00    
       9714                4000.00    
       9715                4000.00    
       9716                4000.00    
       9717                4000.00    
       9718                4000.00    
       9719                4000.00    
       9720                4000.00    
       9721                4000.00    
       9722                4000.00    
       9723                4000.00    
       9724                4000.00    
       9725                4000.00    
       9726                4000.00    
       9727                4000.00    
       9728                4000.00    
       9729                4000.00    
       9730                4000.00    
       9731                4000.00    
       9732                4000.00    
       9733                4000.00    
       9734                4000.00    
       9735                4000.00    
       9736                4000.00    
       9737                4000.00    
       9738                4000.00    
       9739                4000.00    
       9740                4000.00    
       9741                4000.00    
       9742                4000.00    
       9743                4000.00    
       9744                4000.00    
       9745                4000.00    
       9746                4000.00    
       9747                4000.00    
       9748                4000.00    
       9749                4000.00    
       9750                4000.00    
       9751                4000.00    
       9752                4000.00    
       9753                4000.00    
       9754                4000.00    
       9755                4000.00    
       9756                4000.00    
       9757                4000.00    
       9758                4000.00    
       9759                4000.00    
       9760                4000.00    
       9761                4000.00    
       9762                4000.00    
       9763                4000.00    
       9764                4000.00    
       9765                4000.00    
       9766                4000.00    
       9767                4000.00    
       9768                4000.00    
       9769                4000.00    
       9770                4000.00    
       9771                4000.00    
       9772                4000.00    
       9773                4000.00    
       9774                4000.00    
       9775                4000.00    
       9776                4000.00    
       9777                4000.00    
       9778                4000.00    
       9779                4000.00    
       9780                4000.00    
       9781                4000.00    
       9782                4000.00    
       9783                4000.00    
       9784                4000.00    
       9785                4000.00    
       9786                4000.00    
       9787                4000.00    
       9788                4000.00    
       9789                4000.00    
       9790                4000.00    
       9791                4000.00    
       9792                4000.00    
       9793                4000.00    
       9794                4000.00    
       9795                4000.00    
       9796                4000.00    
       9797                4000.00    
       9798                4000.00    
       9799                4000.00    
       9800                4000.00    
       9801                4000.00    
       9802                4000.00    
       9803                4000.00    
       9804                4000.00    
       9805                4000.00    
       9806                4000.00    
       9807                4000.00    
       9808                4000.00    
       9809                4000.00    
       9810                4000.00    
       9811                4000.00    
       9812                4000.00    
       9813                4000.00    
       9814                4000.00    
       9815                4000.00    
       9816                4000.00    
       9817                4000.00    
       9818                4000.00    
       9819                4000.00    
       9820                4000.00    
       9821                4000.00    
       9822                4000.00    
       9823                4000.00    
       9824                4000.00    
       9825                4000.00    
       9826                4000.00    
       9827                4000.00    
       9828                4000.00    
       9829                4000.00    
       9830                4000.00    
       9831                4000.00    
       9832                4000.00    
       9833                4000.00    
       9834                4000.00    
       9835                4000.00    
       9836                4000.00    
       9837                4000.00    
       9838                4000.00    
       9839                4000.00    
       9840                4000.00    
       9841                4000.00    
       9842                4000.00    
       9843                4000.00    
       9844                4000.00    
       9845                4000.00    
       9846                4000.00    
       9847                4000.00    
       9848                4000.00    
       9849                4000.00    
       9850                4000.00    
       9851                4000.00    
       9852                4000.00    
       9853                4000.00    
       9854                4000.00    
       9855                4000.00    
       9856                4000.00    
       9857                4000.00    
       9858                4000.00    
       9859                4000.00    
       9860                4000.00    
       9861                4000.00    
       9862                4000.00    
       9863                4000.00    
       9864                4000.00    
       9865                4000.00    
       9866                4000.00    
       9867                4000.00    
       9868                4000.00    
       9869                4000.00    
       9870                4000.00    
       9871                4000.00    
       9872                4000.00    
       9873                4000.00    
       9874                4000.00    
       9875                4000.00    
       9876                4000.00    
       9877                4000.00    
       9878                4000.00    
       9879                4000.00    
       9880                4000.00    
       9881                4000.00    
       9882                4000.00    
       9883                4000.00    
       9884                4000.00    
       9885                4000.00    
       9886                4000.00    
       9887                4000.00    
       9888                4000.00    
       9889                4000.00    
       9890                4000.00    
       9891                4000.00    
       9892                4000.00    
       9893                4000.00    
       9894                4000.00    
       9895                4000.00    
       9896                4000.00    
       9897                4000.00    
       9898                4000.00    
       9899                4000.00    
       9900                4000.00    
       9901                4000.00    
       9902                4000.00    
       9903                4000.00    
       9904                4000.00    
       9905                4000.00    
       9906                4000.00    
       9907                4000.00    
       9908                4000.00    
       9909                4000.00    
       9910                4000.00    
       9911                4000.00    
       9912                4000.00    
       9913                4000.00    
       9914                4000.00    
       9915                4000.00    
       9916                4000.00    
       9917                4000.00    
       9918                4000.00    
       9919                4000.00    
       9920                4000.00    
       9921                4000.00    
       9922                4000.00    
       9923                4000.00    
       9924                4000.00    
       9925                4000.00    
       9926                4000.00    
       9927                4000.00    
       9928                4000.00    
       9929                4000.00    
       9930                4000.00    
       9931                4000.00    
       9932                4000.00    
       9933                4000.00    
       9934                4000.00    
       9935                4000.00    
       9936                4000.00    
       9937                4000.00    
       9938                4000.00    
       9939                4000.00    
       9940                4000.00    
       9941                4000.00    
       9942                4000.00    
       9943                4000.00    
       9944                4000.00    
       9945                4000.00    
       9946                4000.00    
       9947                4000.00    
       9948                4000.00    
       9949                4000.00    
       9950                4000.00    
       9951                4000.00    
       9952                4000.00    
       9953                4000.00    
       9954                4000.00    
       9955                4000.00    
       9956                4000.00    
       9957                4000.00    
       9958                4000.00    
       9959                4000.00    
       9960                4000.00    
       9961                4000.00    
       9962                4000.00    
       9963                4000.00    
       9964                4000.00    
       9965                4000.00    
       9966                4000.00    
       9967                4000.00    
       9968                4000.00    
       9969                4000.00    
       9970                4000.00    
       9971                4000.00    
       9972                4000.00    
       9973                4000.00    
       9974                4000.00    
       9975                4000.00    
       9976                4000.00    
       9977                4000.00    
       9978                4000.00    
       9979                4000.00    
       9980                4000.00    
       9981                4000.00    
       9982                4000.00    
       9983                4000.00    
       9984                4000.00    
       9985                4000.00    
       9986                4000.00    
       9987                4000.00    
       9988                4000.00    
       9989                4000.00    
       9990                4000.00    
       9991                4000.00    
       9992                4000.00    
       9993                4000.00    
       9994                4000.00    
       9995                4000.00    
       9996                4000.00    
       9997                4000.00    
       9998                4000.00    
       9999                4000.00    
      10000                4000.00    
      10001                4000.00    
      10002                4000.00    
      10003                4000.00    
      10004                4000.00    
      10005                4000.00    
      10006                4000.00    
      10007                4000.00    
      10008                4000.00    
      10009                4000.00    
      10010                4000.00    
      10011                4000.00    
      10012                4000.00    
      10013                4000.00    
      10014                4000.00    
      10015                4000.00    
      10016                4000.00    
      10017                4000.00    
      10018                4000.00    
      10019                4000.00    
      10020                4000.00    
      10021                4000.00    
      10022                4000.00    
      10023                4000.00    
      10024                4000.00    
      10025                4000.00    
      10026                4000.00    
      10027                4000.00    
      10028                4000.00    
      10029                4000.00    
      10030                4000.00    
      10031                4000.00    
      10032                4000.00    
      10033                4000.00    
      10034                4000.00    
      10035                4000.00    
      10036                4000.00    
      10037                4000.00    
      10038                4000.00    
      10039                4000.00    
      10040                4000.00    
      10041                4000.00    
      10042                4000.00    
      10043                4000.00    
      10044                4000.00    
      10045                4000.00    
      10046                4000.00    
      10047                4000.00    
      10048                4000.00    
      10049                4000.00    
      10050                4000.00    
      10051                4000.00    
      10052                4000.00    
      10053                4000.00    
      10054                4000.00    
      10055                4000.00    
      10056                4000.00    
      10057                4000.00    
      10058                4000.00    
      10059                4000.00    
      10060                4000.00    
      10061                4000.00    
      10062                4000.00    
      10063                4000.00    
      10064                4000.00    
      10065                4000.00    
      10066                4000.00    
      10067                4000.00    
      10068                4000.00    
      10069                4000.00    
      10070                4000.00    
      10071                4000.00    
      10072                4000.00    
      10073                4000.00    
      10074                4000.00    
      10075                4000.00    
      10076                4000.00    
      10077                4000.00    
      10078                4000.00    
      10079                4000.00    
      10080                4000.00    
      10081                4000.00    
      10082                4000.00    
      10083                4000.00    
      10084                4000.00    
      10085                4000.00    
      10086                4000.00    
      10087                4000.00    
      10088                4000.00    
      10089                4000.00    
      10090                4000.00    
      10091                4000.00    
      10092                4000.00    
      10093                4000.00    
      10094                4000.00    
      10095                4000.00    
      10096                4000.00    
      10097                4000.00    
      10098                4000.00    
      10099                4000.00    
      10100                4000.00    
      10101                4000.00    
      10102                4000.00    
      10103                4000.00    
      10104                4000.00    
      10105                4000.00    
      10106                4000.00    
      10107                4000.00    
      10108                4000.00    
      10109                4000.00    
      10110                4000.00    
      10111                4000.00    
      10112                4000.00    
      10113                4000.00    
      10114                4000.00    
      10115                4000.00    
      10116                4000.00    
      10117                4000.00    
      10118                4000.00    
      10119                4000.00    
      10120                4000.00    
      10121                4000.00    
      10122                4000.00    
      10123                4000.00    
      10124                4000.00    
      10125                4000.00    
      10126                4000.00    
      10127                4000.00    
      10128                4000.00    
      10129                4000.00    
      10130                4000.00    
      10131                4000.00    
      10132                4000.00    
      10133                4000.00    
      10134                4000.00    
      10135                4000.00    
      10136                4000.00    
      10137                4000.00    
      10138                4000.00    
      10139                4000.00    
      10140                4000.00    
      10141                4000.00    
      10142                4000.00    
      10143                4000.00    
      10144                4000.00    
      10145                4000.00    
      10146                4000.00    
      10147                4000.00    
      10148                4000.00    
      10149                4000.00    
      10150                4000.00    
      10151                4000.00    
      10152                4000.00    
      10153                4000.00    
      10154                4000.00    
      10155                4000.00    
      10156                4000.00    
      10157                4000.00    
      10158                4000.00    
      10159                4000.00    
      10160                4000.00    
      10161                4000.00    
      10162                4000.00    
      10163                4000.00    
      10164                4000.00    
      10165                4000.00    
      10166                4000.00    
      10167                4000.00    
      10168                4000.00    
      10169                4000.00    
      10170                4000.00    
      10171                4000.00    
      10172                4000.00    
      10173                4000.00    
      10174                4000.00    
      10175                4000.00    
      10176                4000.00    
      10177                4000.00    
      10178                4000.00    
      10179                4000.00    
      10180                4000.00    
      10181                4000.00    
      10182                4000.00    
      10183                4000.00    
      10184                4000.00    
      10185                4000.00    
      10186                4000.00    
      10187                4000.00    
      10188                4000.00    
      10189                4000.00    
      10190                4000.00    
      10191                4000.00    
      10192                4000.00    
      10193                4000.00    
      10194                4000.00    
      10195                4000.00    
      10196                4000.00    
      10197                4000.00    
      10198                4000.00    
      10199                4000.00    
      10200                4000.00    
      10201                4000.00    
      10202                4000.00    
      10203                4000.00    
      10204                4000.00    
      10205                4000.00    
      10206                4000.00    
      10207                4000.00    
      10208                4000.00    
      10209                4000.00    
      10210                4000.00    
      10211                4000.00    
      10212                4000.00    
      10213                4000.00    
      10214                4000.00    
      10215                4000.00    
      10216                4000.00    
      10217                4000.00    
      10218                4000.00    
      10219                4000.00    
      10220                4000.00    
      10221                4000.00    
      10222                4000.00    
      10223                4000.00    
      10224                4000.00    
      10225                4000.00    
      10226                4000.00    
      10227                4000.00    
      10228                4000.00    
      10229                4000.00    
      10230                4000.00    
      10231                4000.00    
      10232                4000.00    
      10233                4000.00    
      10234                4000.00    
      10235                4000.00    
      10236                4000.00    
      10237                4000.00    
      10238                4000.00    
      10239                4000.00    
      10240                4000.00    
      10241                4000.00    
      10242                4000.00    
      10243                4000.00    
      10244                4000.00    
      10245                4000.00    
      10246                4000.00    
      10247                4000.00    
      10248                4000.00    
      10249                4000.00    
      10250                4000.00    
      10251                4000.00    
      10252                4000.00    
      10253                4000.00    
      10254                4000.00    
      10255                4000.00    
      10256                4000.00    
      10257                4000.00    
      10258                4000.00    
      10259                4000.00    
      10260                4000.00    
      10261                4000.00    
      10262                4000.00    
      10263                4000.00    
      10264                4000.00    
      10265                4000.00    
      10266                4000.00    
      10267                4000.00    
      10268                4000.00    
      10269                4000.00    
      10270                4000.00    
      10271                4000.00    
      10272                4000.00    
      10273                4000.00    
      10274                4000.00    
      10275                4000.00    
      10276                4000.00    
      10277                4000.00    
      10278                4000.00    
      10279                4000.00    
      10280                4000.00    
      10281                4000.00    
      10282                4000.00    
      10283                4000.00    
      10284                4000.00    
      10285                4000.00    
      10286                4000.00    
      10287                4000.00    
      10288                4000.00    
      10289                4000.00    
      10290                4000.00    
      10291                4000.00    
      10292                4000.00    
      10293                4000.00    
      10294                4000.00    
      10295                4000.00    
      10296                4000.00    
      10297                4000.00    
      10298                4000.00    
      10299                4000.00    
      10300                4000.00    
      10301                4000.00    
      10302                4000.00    
      10303                4000.00    
      10304                4000.00    
      10305                4000.00    
      10306                4000.00    
      10307                4000.00    
      10308                4000.00    
      10309                4000.00    
      10310                4000.00    
      10311                4000.00    
      10312                4000.00    
      10313                4000.00    
      10314                4000.00    
      10315                4000.00    
      10316                4000.00    
      10317                4000.00    
      10318                4000.00    
      10319                4000.00    
      10320                4000.00    
      10321                4000.00    
      10322                4000.00    
      10323                4000.00    
      10324                4000.00    
      10325                4000.00    
      10326                4000.00    
      10327                4000.00    
      10328                4000.00    
      10329                4000.00    
      10330                4000.00    
      10331                4000.00    
      10332                4000.00    
      10333                4000.00    
      10334                4000.00    
      10335                4000.00    
      10336                4000.00    
      10337                4000.00    
      10338                4000.00    
      10339                4000.00    
      10340                4000.00    
      10341                4000.00    
      10342                4000.00    
      10343                4000.00    
      10344                4000.00    
      10345                4000.00    
      10346                4000.00    
      10347                4000.00    
      10348                4000.00    
      10349                4000.00    
      10350                4000.00    
      10351                4000.00    
      10352                4000.00    
      10353                4000.00    
      10354                4000.00    
      10355                4000.00    
      10356                4000.00    
      10357                4000.00    
      10358                4000.00    
      10359                4000.00    
      10360                4000.00    
      10361                4000.00    
      10362                4000.00    
      10363                4000.00    
      10364                4000.00    
      10365                4000.00    
      10366                4000.00    
      10367                4000.00    
      10368                4000.00    
      10369                4000.00    
      10370                4000.00    
      10371                4000.00    
      10372                4000.00    
      10373                4000.00    
      10374                4000.00    
      10375                4000.00    
      10376                4000.00    
      10377                4000.00    
      10378                4000.00    
      10379                4000.00    
      10380                4000.00    
      10381                4000.00    
      10382                4000.00    
      10383                4000.00    
      10384                4000.00    
      10385                4000.00    
      10386                4000.00    
      10387                4000.00    
      10388                4000.00    
      10389                4000.00    
      10390                4000.00    
      10391                4000.00    
      10392                4000.00    
      10393                4000.00    
      10394                4000.00    
      10395                4000.00    
      10396                4000.00    
      10397                4000.00    
      10398                4000.00    
      10399                4000.00    
      10400                4000.00    
      10401                4000.00    
      10402                4000.00    
      10403                4000.00    
      10404                4000.00    
      10405                4000.00    
      10406                4000.00    
      10407                4000.00    
      10408                4000.00    
      10409                4000.00    
      10410                4000.00    
      10411                4000.00    
      10412                4000.00    
      10413                4000.00    
      10414                4000.00    
      10415                4000.00    
      10416                4000.00    
      10417                4000.00    
      10418                4000.00    
      10419                4000.00    
      10420                4000.00    
      10421                4000.00    
      10422                4000.00    
      10423                4000.00    
      10424                4000.00    
      10425                4000.00    
      10426                4000.00    
      10427                4000.00    
      10428                4000.00    
      10429                4000.00    
      10430                4000.00    
      10431                4000.00    
      10432                4000.00    
      10433                4000.00    
      10434                4000.00    
      10435                4000.00    
      10436                4000.00    
      10437                4000.00    
      10438                4000.00    
      10439                4000.00    
      10440                4000.00    
      10441                4000.00    
      10442                4000.00    
      10443                4000.00    
      10444                4000.00    
      10445                4000.00    
      10446                4000.00    
      10447                4000.00    
      10448                4000.00    
      10449                4000.00    
      10450                4000.00    
      10451                4000.00    
      10452                4000.00    
      10453                4000.00    
      10454                4000.00    
      10455                4000.00    
      10456                4000.00    
      10457                4000.00    
      10458                4000.00    
      10459                4000.00    
      10460                4000.00    
      10461                4000.00    
      10462                4000.00    
      10463                4000.00    
      10464                4000.00    
      10465                4000.00    
      10466                4000.00    
      10467                4000.00    
      10468                4000.00    
      10469                4000.00    
      10470                4000.00    
      10471                4000.00    
      10472                4000.00    
      10473                4000.00    
      10474                4000.00    
      10475                4000.00    
      10476                4000.00    
      10477                4000.00    
      10478                4000.00    
      10479                4000.00    
      10480                4000.00    
      10481                4000.00    
      10482                4000.00    
      10483                4000.00    
      10484                4000.00    
      10485                4000.00    
      10486                4000.00    
      10487                4000.00    
      10488                4000.00    
      10489                4000.00    
      10490                4000.00    
      10491                4000.00    
      10492                4000.00    
      10493                4000.00    
      10494                4000.00    
      10495                4000.00    
      10496                4000.00    
      10497                4000.00    
      10498                4000.00    
      10499                4000.00    
      10500                4000.00    
      10501                4000.00    
      10502                4000.00    
      10503                4000.00    
      10504                4000.00    
      10505                4000.00    
      10506                4000.00    
      10507                4000.00    
      10508                4000.00    
      10509                4000.00    
      10510                4000.00    
      10511                4000.00    
      10512                4000.00    
      10513                4000.00    
      10514                4000.00    
      10515                4000.00    
      10516                4000.00    
      10517                4000.00    
      10518                4000.00    
      10519                4000.00    
      10520                4000.00    
      10521                4000.00    
      10522                4000.00    
      10523                4000.00    
      10524                4000.00    
      10525                4000.00    
      10526                4000.00    
      10527                4000.00    
      10528                4000.00    
      10529                4000.00    
      10530                4000.00    
      10531                4000.00    
      10532                4000.00    
      10533                4000.00    
      10534                4000.00    
      10535                4000.00    
      10536                4000.00    
      10537                4000.00    
      10538                4000.00    
      10539                4000.00    
      10540                4000.00    
      10541                4000.00    
      10542                4000.00    
      10543                4000.00    
      10544                4000.00    
      10545                4000.00    
      10546                4000.00    
      10547                4000.00    
      10548                4000.00    
      10549                4000.00    
      10550                4000.00    
      10551                4000.00    
      10552                4000.00    
      10553                4000.00    
      10554                4000.00    
      10555                4000.00    
      10556                4000.00    
      10557                4000.00    
      10558                4000.00    
      10559                4000.00    
      10560                4000.00    
      10561                4000.00    
      10562                4000.00    
      10563                4000.00    
      10564                4000.00    
      10565                4000.00    
      10566                4000.00    
      10567                4000.00    
      10568                4000.00    
      10569                4000.00    
      10570                4000.00    
      10571                4000.00    
      10572                4000.00    
      10573                4000.00    
      10574                4000.00    
      10575                4000.00    
      10576                4000.00    
      10577                4000.00    
      10578                4000.00    
      10579                4000.00    
      10580                4000.00    
      10581                4000.00    
      10582                4000.00    
      10583                4000.00    
      10584                4000.00    
      10585                4000.00    
      10586                4000.00    
      10587                4000.00    
      10588                4000.00    
      10589                4000.00    
      10590                4000.00    
      10591                4000.00    
      10592                4000.00    
      10593                4000.00    
      10594                4000.00    
      10595                4000.00    
      10596                4000.00    
      10597                4000.00    
      10598                4000.00    
      10599                4000.00    
      10600                4000.00    
      10601                4000.00    
      10602                4000.00    
      10603                4000.00    
      10604                4000.00    
      10605                4000.00    
      10606                4000.00    
      10607                4000.00    
      10608                4000.00    
      10609                4000.00    
      10610                4000.00    
      10611                4000.00    
      10612                4000.00    
      10613                4000.00    
      10614                4000.00    
      10615                4000.00    
      10616                4000.00    
      10617                4000.00    
      10618                4000.00    
      10619                4000.00    
      10620                4000.00    
      10621                4000.00    
      10622                4000.00    
      10623                4000.00    
      10624                4000.00    
      10625                4000.00    
      10626                4000.00    
      10627                4000.00    
      10628                4000.00    
      10629                4000.00    
      10630                4000.00    
      10631                4000.00    
      10632                4000.00    
      10633                4000.00    
      10634                4000.00    
      10635                4000.00    
      10636                4000.00    
      10637                4000.00    
      10638                4000.00    
      10639                4000.00    
      10640                4000.00    
      10641                4000.00    
      10642                4000.00    
      10643                4000.00    
      10644                4000.00    
      10645                4000.00    
      10646                4000.00    
      10647                4000.00    
      10648                4000.00    
      10649                4000.00    
      10650                4000.00    
      10651                4000.00    
      10652                4000.00    
      10653                4000.00    
      10654                4000.00    
      10655                4000.00    
      10656                4000.00    
      10657                4000.00    
      10658                4000.00    
      10659                4000.00    
      10660                4000.00    
      10661                4000.00    
      10662                4000.00    
      10663                4000.00    
      10664                4000.00    
      10665                4000.00    
      10666                4000.00    
      10667                4000.00    
      10668                4000.00    
      10669                4000.00    
      10670                4000.00    
      10671                4000.00    
      10672                4000.00    
      10673                4000.00    
      10674                4000.00    
      10675                4000.00    
      10676                4000.00    
      10677                4000.00    
      10678                4000.00    
      10679                4000.00    
      10680                4000.00    
      10681                4000.00    
      10682                4000.00    
      10683                4000.00    
      10684                4000.00    
      10685                4000.00    
      10686                4000.00    
      10687                4000.00    
      10688                4000.00    
      10689                4000.00    
      10690                4000.00    
      10691                4000.00    
      10692                4000.00    
      10693                4000.00    
      10694                4000.00    
      10695                4000.00    
      10696                4000.00    
      10697                4000.00    
      10698                4000.00    
      10699                4000.00    
      10700                4000.00    
      10701                4000.00    
      10702                4000.00    
      10703                4000.00    
      10704                4000.00    
      10705                4000.00    
      10706                4000.00    
      10707                4000.00    
      10708                4000.00    
      10709                4000.00    
      10710                4000.00    
      10711                4000.00    
      10712                4000.00    
      10713                4000.00    
      10714                4000.00    
      10715                4000.00    
      10716                4000.00    
      10717                4000.00    
      10718                4000.00    
      10719                4000.00    
      10720                4000.00    
      10721                4000.00    
      10722                4000.00    
      10723                4000.00    
      10724                4000.00    
      10725                4000.00    
      10726                4000.00    
      10727                4000.00    
      10728                4000.00    
      10729                4000.00    
      10730                4000.00    
      10731                4000.00    
      10732                4000.00    
      10733                4000.00    
      10734                4000.00    
      10735                4000.00    
      10736                4000.00    
      10737                4000.00    
      10738                4000.00    
      10739                4000.00    
      10740                4000.00    
      10741                4000.00    
      10742                4000.00    
      10743                4000.00    
      10744                4000.00    
      10745                4000.00    
      10746                4000.00    
      10747                4000.00    
      10748                4000.00    
      10749                4000.00    
      10750                4000.00    
      10751                4000.00    
      10752                4000.00    
      10753                4000.00    
      10754                4000.00    
      10755                4000.00    
      10756                4000.00    
      10757                4000.00    
      10758                4000.00    
      10759                4000.00    
      10760                4000.00    
      10761                4000.00    
      10762                4000.00    
      10763                4000.00    
      10764                4000.00    
      10765                4000.00    
      10766                4000.00    
      10767                4000.00    
      10768                4000.00    
      10769                4000.00    
      10770                4000.00    
      10771                4000.00    
      10772                4000.00    
      10773                4000.00    
      10774                4000.00    
      10775                4000.00    
      10776                4000.00    
      10777                4000.00    
      10778                4000.00    
      10779                4000.00    
      10780                4000.00    
      10781                4000.00    
      10782                4000.00    
      10783                4000.00    
      10784                4000.00    
      10785                4000.00    
      10786                4000.00    
      10787                4000.00    
      10788                4000.00    
      10789                4000.00    
      10790                4000.00    
      10791                4000.00    
      10792                4000.00    
      10793                4000.00    
      10794                4000.00    
      10795                4000.00    
      10796                4000.00    
      10797                4000.00    
      10798                4000.00    
      10799                4000.00    
      10800                4000.00    
      10801                4000.00    
      10802                4000.00    
      10803                4000.00    
      10804                4000.00    
      10805                4000.00    
      10806                4000.00    
      10807                4000.00    
      10808                4000.00    
      10809                4000.00    
      10810                4000.00    
      10811                4000.00    
      10812                4000.00    
      10813                4000.00    
      10814                4000.00    
      10815                4000.00    
      10816                4000.00    
      10817                4000.00    
      10818                4000.00    
      10819                4000.00    
      10820                4000.00    
      10821                4000.00    
      10822                4000.00    
      10823                4000.00    
      10824                4000.00    
      10825                4000.00    
      10826                4000.00    
      10827                4000.00    
      10828                4000.00    
      10829                4000.00    
      10830                4000.00    
      10831                4000.00    
      10832                4000.00    
      10833                4000.00    
      10834                4000.00    
      10835                4000.00    
      10836                4000.00    
      10837                4000.00    
      10838                4000.00    
      10839                4000.00    
      10840                4000.00    
      10841                4000.00    
      10842                4000.00    
      10843                4000.00    
      10844                4000.00    
      10845                4000.00    
      10846                4000.00    
      10847                4000.00    
      10848                4000.00    
      10849                4000.00    
      10850                4000.00    
      10851                4000.00    
      10852                4000.00    
      10853                4000.00    
      10854                4000.00    
      10855                4000.00    
      10856                4000.00    
      10857                4000.00    
      10858                4000.00    
      10859                4000.00    
      10860                4000.00    
      10861                4000.00    
      10862                4000.00    
      10863                4000.00    
      10864                4000.00    
      10865                4000.00    
      10866                4000.00    
      10867                4000.00    
      10868                4000.00    
      10869                4000.00    
      10870                4000.00    
      10871                4000.00    
      10872                4000.00    
      10873                4000.00    
      10874                4000.00    
      10875                4000.00    
      10876                4000.00    
      10877                4000.00    
      10878                4000.00    
      10879                4000.00    
      10880                4000.00    
      10881                4000.00    
      10882                4000.00    
      10883                4000.00    
      10884                4000.00    
      10885                4000.00    
      10886                4000.00    
      10887                4000.00    
      10888                4000.00    
      10889                4000.00    
      10890                4000.00    
      10891                4000.00    
      10892                4000.00    
      10893                4000.00    
      10894                4000.00    
      10895                4000.00    
      10896                4000.00    
      10897                4000.00    
      10898                4000.00    
      10899                4000.00    
      10900                4000.00    
      10901                4000.00    
      10902                4000.00    
      10903                4000.00    
      10904                4000.00    
      10905                4000.00    
      10906                4000.00    
      10907                4000.00    
      10908                4000.00    
      10909                4000.00    
      10910                4000.00    
      10911                4000.00    
      10912                4000.00    
      10913                4000.00    
      10914                4000.00    
      10915                4000.00    
      10916                4000.00    
      10917                4000.00    
      10918                4000.00    
      10919                4000.00    
      10920                4000.00    
      10921                4000.00    
      10922                4000.00    
      10923                4000.00    
      10924                4000.00    
      10925                4000.00    
      10926                4000.00    
      10927                4000.00    
      10928                4000.00    
      10929                4000.00    
      10930                4000.00    
      10931                4000.00    
      10932                4000.00    
      10933                4000.00    
      10934                4000.00    
      10935                4000.00    
      10936                4000.00    
      10937                4000.00    
      10938                4000.00    
      10939                4000.00    
      10940                4000.00    
      10941                4000.00    
      10942                4000.00    
      10943                4000.00    
      10944                4000.00    
      10945                4000.00    
      10946                4000.00    
      10947                4000.00    
      10948                4000.00    
      10949                4000.00    
      10950                4000.00    
      10951                4000.00    
      10952                4000.00    
      10953                4000.00    
      10954                4000.00    
      10955                4000.00    
      10956                4000.00    
      10957                4000.00    
      10958                4000.00    
      10959                4000.00    
      10960                4000.00    
      10961                4000.00    
      10962                4000.00    
      10963                4000.00    
      10964                4000.00    
      10965                4000.00    
      10966                4000.00    
      10967                4000.00    
      10968                4000.00    
      10969                4000.00    
      10970                4000.00    
      10971                4000.00    
      10972                4000.00    
      10973                4000.00    
      10974                4000.00    
      10975                4000.00    
      10976                4000.00    
      10977                4000.00    
      10978                4000.00    
      10979                4000.00    
      10980                4000.00    
      10981                4000.00    
      10982                4000.00    
      10983                4000.00    
      10984                4000.00    
      10985                4000.00    
      10986                4000.00    
      10987                4000.00    
      10988                4000.00    
      10989                4000.00    
      10990                4000.00    
      10991                4000.00    
      10992                4000.00    
      10993                4000.00    
      10994                4000.00    
      10995                4000.00    
      10996                4000.00    
      10997                4000.00    
      10998                4000.00    
      10999                4000.00    
      11000                4000.00    
      11001                4000.00    
      11002                4000.00    
      11003                4000.00    
      11004                4000.00    
      11005                4000.00    
      11006                4000.00    
      11007                4000.00    
      11008                4000.00    
      11009                4000.00    
      11010                4000.00    
      11011                4000.00    
      11012                4000.00    
      11013                4000.00    
      11014                4000.00    
      11015                4000.00    
      11016                4000.00    
      11017                4000.00    
      11018                4000.00    
      11019                4000.00    
      11020                4000.00    
      11021                4000.00    
      11022                4000.00    
      11023                4000.00    
      11024                4000.00    
      11025                4000.00    
      11026                4000.00    
      11027                4000.00    
      11028                4000.00    
      11029                4000.00    
      11030                4000.00    
      11031                4000.00    
      11032                4000.00    
      11033                4000.00    
      11034                4000.00    
      11035                4000.00    
      11036                4000.00    
      11037                4000.00    
      11038                4000.00    
      11039                4000.00    
      11040                4000.00    
      11041                4000.00    
      11042                4000.00    
      11043                4000.00    
      11044                4000.00    
      11045                4000.00    
      11046                4000.00    
      11047                4000.00    
      11048                4000.00    
      11049                4000.00    
      11050                4000.00    
      11051                4000.00    
      11052                4000.00    
      11053                4000.00    
      11054                4000.00    
      11055                4000.00    
      11056                4000.00    
      11057                4000.00    
      11058                4000.00    
      11059                4000.00    
      11060                4000.00    
      11061                4000.00    
      11062                4000.00    
      11063                4000.00    
      11064                4000.00    
      11065                4000.00    
      11066                4000.00    
      11067                4000.00    
      11068                4000.00    
      11069                4000.00    
      11070                4000.00    
      11071                4000.00    
      11072                4000.00    
      11073                4000.00    
      11074                4000.00    
      11075                4000.00    
      11076                4000.00    
      11077                4000.00    
      11078                4000.00    
      11079                4000.00    
      11080                4000.00    
      11081                4000.00    
      11082                4000.00    
      11083                4000.00    
      11084                4000.00    
      11085                4000.00    
      11086                4000.00    
      11087                4000.00    
      11088                4000.00    
      11089                4000.00    
      11090                4000.00    
      11091                4000.00    
      11092                4000.00    
      11093                4000.00    
      11094                4000.00    
      11095                4000.00    
      11096                4000.00    
      11097                4000.00    
      11098                4000.00    
      11099                4000.00    
      11100                4000.00    
      11101                4000.00    
      11102                4000.00    
      11103                4000.00    
      11104                4000.00    
      11105                4000.00    
      11106                4000.00    
      11107                4000.00    
      11108                4000.00    
      11109                4000.00    
      11110                4000.00    
      11111                4000.00    
      11112                4000.00    
      11113                4000.00    
      11114                4000.00    
      11115                4000.00    
      11116                4000.00    
      11117                4000.00    
      11118                4000.00    
      11119                4000.00    
      11120                4000.00    
      11121                4000.00    
      11122                4000.00    
      11123                4000.00    
      11124                4000.00    
      11125                4000.00    
      11126                4000.00    
      11127                4000.00    
      11128                4000.00    
      11129                4000.00    
      11130                4000.00    
      11131                4000.00    
      11132                4000.00    
      11133                4000.00    
      11134                4000.00    
      11135                4000.00    
      11136                4000.00    
      11137                4000.00    
      11138                4000.00    
      11139                4000.00    
      11140                4000.00    
      11141                4000.00    
      11142                4000.00    
      11143                4000.00    
      11144                4000.00    
      11145                4000.00    
      11146                4000.00    
      11147                4000.00    
      11148                4000.00    
      11149                4000.00    
      11150                4000.00    
      11151                4000.00    
      11152                4000.00    
      11153                4000.00    
      11154                4000.00    
      11155                4000.00    
      11156                4000.00    
      11157                4000.00    
      11158                4000.00    
      11159                4000.00    
      11160                4000.00    
      11161                4000.00    
      11162                4000.00    
      11163                4000.00    
      11164                4000.00    
      11165                4000.00    
      11166                4000.00    
      11167                4000.00    
      11168                4000.00    
      11169                4000.00    
      11170                4000.00    
      11171                4000.00    
      11172                4000.00    
      11173                4000.00    
      11174                4000.00    
      11175                4000.00    
      11176                4000.00    
      11177                4000.00    
      11178                4000.00    
      11179                4000.00    
      11180                4000.00    
      11181                4000.00    
      11182                4000.00    
      11183                4000.00    
      11184                4000.00    
      11185                4000.00    
      11186                4000.00    
      11187                4000.00    
      11188                4000.00    
      11189                4000.00    
      11190                4000.00    
      11191                4000.00    
      11192                4000.00    
      11193                4000.00    
      11194                4000.00    
      11195                4000.00    
      11196                4000.00    
      11197                4000.00    
      11198                4000.00    
      11199                4000.00    
      11200                4000.00    
      11201                4000.00    
      11202                4000.00    
      11203                4000.00    
      11204                4000.00    
      11205                4000.00    
      11206                4000.00    
      11207                4000.00    
      11208                4000.00    
      11209                4000.00    
      11210                4000.00    
      11211                4000.00    
      11212                4000.00    
      11213                4000.00    
      11214                4000.00    
      11215                4000.00    
      11216                4000.00    
      11217                4000.00    
      11218                4000.00    
      11219                4000.00    
      11220                4000.00    
      11221                4000.00    
      11222                4000.00    
      11223                4000.00    
      11224                4000.00    
      11225                4000.00    
      11226                4000.00    
      11227                4000.00    
      11228                4000.00    
      11229                4000.00    
      11230                4000.00    
      11231                4000.00    
      11232                4000.00    
      11233                4000.00    
      11234                4000.00    
      11235                4000.00    
      11236                4000.00    
      11237                4000.00    
      11238                4000.00    
      11239                4000.00    
      11240                4000.00    
      11241                4000.00    
      11242                4000.00    
      11243                4000.00    
      11244                4000.00    
      11245                4000.00    
      11246                4000.00    
      11247                4000.00    
      11248                4000.00    
      11249                4000.00    
      11250                4000.00    
      11251                4000.00    
      11252                4000.00    
      11253                4000.00    
      11254                4000.00    
      11255                4000.00    
      11256                4000.00    
      11257                4000.00    
      11258                4000.00    
      11259                4000.00    
      11260                4000.00    
      11261                4000.00    
      11262                4000.00    
      11263                4000.00    
      11264                4000.00    
      11265                4000.00    
      11266                4000.00    
      11267                4000.00    
      11268                4000.00    
      11269                4000.00    
      11270                4000.00    
      11271                4000.00    
      11272                4000.00    
      11273                4000.00    
      11274                4000.00    
      11275                4000.00    
      11276                4000.00    
      11277                4000.00    
      11278                4000.00    
      11279                4000.00    
      11280                4000.00    
      11281                4000.00    
      11282                4000.00    
      11283                4000.00    
      11284                4000.00    
      11285                4000.00    
      11286                4000.00    
      11287                4000.00    
      11288                4000.00    
      11289                4000.00    
      11290                4000.00    
      11291                4000.00    
      11292                4000.00    
      11293                4000.00    
      11294                4000.00    
      11295                4000.00    
      11296                4000.00    
      11297                4000.00    
      11298                4000.00    
      11299                4000.00    
      11300                4000.00    
      11301                4000.00    
      11302                4000.00    
      11303                4000.00    
      11304                4000.00    
      11305                4000.00    
      11306                4000.00    
      11307                4000.00    
      11308                4000.00    
      11309                4000.00    
      11310                4000.00    
      11311                4000.00    
      11312                4000.00    
      11313                4000.00    
      11314                4000.00    
      11315                4000.00    
      11316                4000.00    
      11317                4000.00    
      11318                4000.00    
      11319                4000.00    
      11320                4000.00    
      11321                4000.00    
      11322                4000.00    
      11323                4000.00    
      11324                4000.00    
      11325                4000.00    
      11326                4000.00    
      11327                4000.00    
      11328                4000.00    
      11329                4000.00    
      11330                4000.00    
      11331                4000.00    
      11332                4000.00    
      11333                4000.00    
      11334                4000.00    
      11335                4000.00    
      11336                4000.00    
      11337                4000.00    
      11338                4000.00    
      11339                4000.00    
      11340                4000.00    
      11341                4000.00    
      11342                4000.00    
      11343                4000.00    
      11344                4000.00    
      11345                4000.00    
      11346                4000.00    
      11347                4000.00    
      11348                4000.00    
      11349                4000.00    
      11350                4000.00    
      11351                4000.00    
      11352                4000.00    
      11353                4000.00    
      11354                4000.00    
      11355                4000.00    
      11356                4000.00    
      11357                4000.00    
      11358                4000.00    
      11359                4000.00    
      11360                4000.00    
      11361                4000.00    
      11362                4000.00    
      11363                4000.00    
      11364                4000.00    
      11365                4000.00    
      11366                4000.00    
      11367                4000.00    
      11368                4000.00    
      11369                4000.00    
      11370                4000.00    
      11371                4000.00    
      11372                4000.00    
      11373                4000.00    
      11374                4000.00    
      11375                4000.00    
      11376                4000.00    
      11377                4000.00    
      11378                4000.00    
      11379                4000.00    
      11380                4000.00    
      11381                4000.00    
      11382                4000.00    
      11383                4000.00    
      11384                4000.00    
      11385                4000.00    
      11386                4000.00    
      11387                4000.00    
      11388                4000.00    
      11389                4000.00    
      11390                4000.00    
      11391                4000.00    
      11392                4000.00    
      11393                4000.00    
      11394                4000.00    
      11395                4000.00    
      11396                4000.00    
      11397                4000.00    
      11398                4000.00    
      11399                4000.00    
      11400                4000.00    
      11401                4000.00    
      11402                4000.00    
      11403                4000.00    
      11404                4000.00    
      11405                4000.00    
      11406                4000.00    
      11407                4000.00    
      11408                4000.00    
      11409                4000.00    
      11410                4000.00    
      11411                4000.00    
      11412                4000.00    
      11413                4000.00    
      11414                4000.00    
      11415                4000.00    
      11416                4000.00    
      11417                4000.00    
      11418                4000.00    
      11419                4000.00    
      11420                4000.00    
      11421                4000.00    
      11422                4000.00    
      11423                4000.00    
      11424                4000.00    
      11425                4000.00    
      11426                4000.00    
      11427                4000.00    
      11428                4000.00    
      11429                4000.00    
      11430                4000.00    
      11431                4000.00    
      11432                4000.00    
      11433                4000.00    
      11434                4000.00    
      11435                4000.00    
      11436                4000.00    
      11437                4000.00    
      11438                4000.00    
      11439                4000.00    
      11440                4000.00    
      11441                4000.00    
      11442                4000.00    
      11443                4000.00    
      11444                4000.00    
      11445                4000.00    
      11446                4000.00    
      11447                4000.00    
      11448                4000.00    
      11449                4000.00    
      11450                4000.00    
      11451                4000.00    
      11452                4000.00    
      11453                4000.00    
      11454                4000.00    
      11455                4000.00    
      11456                4000.00    
      11457                4000.00    
      11458                4000.00    
      11459                4000.00    
      11460                4000.00    
      11461                4000.00    
      11462                4000.00    
      11463                4000.00    
      11464                4000.00    
      11465                4000.00    
      11466                4000.00    
      11467                4000.00    
      11468                4000.00    
      11469                4000.00    
      11470                4000.00    
      11471                4000.00    
      11472                4000.00    
      11473                4000.00    
      11474                4000.00    
      11475                4000.00    
      11476                4000.00    
      11477                4000.00    
      11478                4000.00    
      11479                4000.00    
      11480                4000.00    
      11481                4000.00    
      11482                4000.00    
      11483                4000.00    
      11484                4000.00    
      11485                4000.00    
      11486                4000.00    
      11487                4000.00    
      11488                4000.00    
      11489                4000.00    
      11490                4000.00    
      11491                4000.00    
      11492                4000.00    
      11493                4000.00    
      11494                4000.00    
      11495                4000.00    
      11496                4000.00    
      11497                4000.00    
      11498                4000.00    
      11499                4000.00    
      11500                4000.00    
      11501                4000.00    
      11502                4000.00    
      11503                4000.00    
      11504                4000.00    
      11505                4000.00    
      11506                4000.00    
      11507                4000.00    
      11508                4000.00    
      11509                4000.00    
      11510                4000.00    
      11511                4000.00    
      11512                4000.00    
      11513                4000.00    
      11514                4000.00    
      11515                4000.00    
      11516                4000.00    
      11517                4000.00    
      11518                4000.00    
      11519                4000.00    
      11520                4000.00    
      11521                4000.00    
      11522                4000.00    
      11523                4000.00    
      11524                4000.00    
      11525                4000.00    
      11526                4000.00    
      11527                4000.00    
      11528                4000.00    
      11529                4000.00    
      11530                4000.00    
      11531                4000.00    
      11532                4000.00    
      11533                4000.00    
      11534                4000.00    
      11535                4000.00    
      11536                4000.00    
      11537                4000.00    
      11538                4000.00    
      11539                4000.00    
      11540                4000.00    
      11541                4000.00    
      11542                4000.00    
      11543                4000.00    
      11544                4000.00    
      11545                4000.00    
      11546                4000.00    
      11547                4000.00    
      11548                4000.00    
      11549                4000.00    
      11550                4000.00    
      11551                4000.00    
      11552                4000.00    
      11553                4000.00    
      11554                4000.00    
      11555                4000.00    
      11556                4000.00    
      11557                4000.00    
      11558                4000.00    
      11559                4000.00    
      11560                4000.00    
      11561                4000.00    
      11562                4000.00    
      11563                4000.00    
      11564                4000.00    
      11565                4000.00    
      11566                4000.00    
      11567                4000.00    
      11568                4000.00    
      11569                4000.00    
      11570                4000.00    
      11571                4000.00    
      11572                4000.00    
      11573                4000.00    
      11574                4000.00    
      11575                4000.00    
      11576                4000.00    
      11577                4000.00    
      11578                4000.00    
      11579                4000.00    
      11580                4000.00    
      11581                4000.00    
      11582                4000.00    
      11583                4000.00    
      11584                4000.00    
      11585                4000.00    
      11586                4000.00    
      11587                4000.00    
      11588                4000.00    
      11589                4000.00    
      11590                4000.00    
      11591                4000.00    
      11592                4000.00    
      11593                4000.00    
      11594                4000.00    
      11595                4000.00    
      11596                4000.00    
      11597                4000.00    
      11598                4000.00    
      11599                4000.00    
      11600                4000.00    
      11601                4000.00    
      11602                4000.00    
      11603                4000.00    
      11604                4000.00    
      11605                4000.00    
      11606                4000.00    
      11607                4000.00    
      11608                4000.00    
      11609                4000.00    
      11610                4000.00    
      11611                4000.00    
      11612                4000.00    
      11613                4000.00    
      11614                4000.00    
      11615                4000.00    
      11616                4000.00    
      11617                4000.00    
      11618                4000.00    
      11619                4000.00    
      11620                4000.00    
      11621                4000.00    
      11622                4000.00    
      11623                4000.00    
      11624                4000.00    
      11625                4000.00    
      11626                4000.00    
      11627                4000.00    
      11628                4000.00    
      11629                4000.00    
      11630                4000.00    
      11631                4000.00    
      11632                4000.00    
      11633                4000.00    
      11634                4000.00    
      11635                4000.00    
      11636                4000.00    
      11637                4000.00    
      11638                4000.00    
      11639                4000.00    
      11640                4000.00    
      11641                4000.00    
      11642                4000.00    
      11643                4000.00    
      11644                4000.00    
      11645                4000.00    
      11646                4000.00    
      11647                4000.00    
      11648                4000.00    
      11649                4000.00    
      11650                4000.00    
      11651                4000.00    
      11652                4000.00    
      11653                4000.00    
      11654                4000.00    
      11655                4000.00    
      11656                4000.00    
      11657                4000.00    
      11658                4000.00    
      11659                4000.00    
      11660                4000.00    
      11661                4000.00    
      11662                4000.00    
      11663                4000.00    
      11664                4000.00    
      11665                4000.00    
      11666                4000.00    
      11667                4000.00    
      11668                4000.00    
      11669                4000.00    
      11670                4000.00    
      11671                4000.00    
      11672                4000.00    
      11673                4000.00    
      11674                4000.00    
      11675                4000.00    
      11676                4000.00    
      11677                4000.00    
      11678                4000.00    
      11679                4000.00    
      11680                4000.00    
      11681                4000.00    
      11682                4000.00    
      11683                4000.00    
      11684                4000.00    
      11685                4000.00    
      11686                4000.00    
      11687                4000.00    
      11688                4000.00    
      11689                4000.00    
      11690                4000.00    
      11691                4000.00    
      11692                4000.00    
      11693                4000.00    
      11694                4000.00    
      11695                4000.00    
      11696                4000.00    
      11697                4000.00    
      11698                4000.00    
      11699                4000.00    
      11700                4000.00    
      11701                4000.00    
      11702                4000.00    
      11703                4000.00    
      11704                4000.00    
      11705                4000.00    
      11706                4000.00    
      11707                4000.00    
      11708                4000.00    
      11709                4000.00    
      11710                4000.00    
      11711                4000.00    
      11712                4000.00    
      11713                4000.00    
      11714                4000.00    
      11715                4000.00    
      11716                4000.00    
      11717                4000.00    
      11718                4000.00    
      11719                4000.00    
      11720                4000.00    
      11721                4000.00    
      11722                4000.00    
      11723                4000.00    
      11724                4000.00    
      11725                4000.00    
      11726                4000.00    
      11727                4000.00    
      11728                4000.00    
      11729                4000.00    
      11730                4000.00    
      11731                4000.00    
      11732                4000.00    
      11733                4000.00    
      11734                4000.00    
      11735                4000.00    
      11736                4000.00    
      11737                4000.00    
      11738                4000.00    
      11739                4000.00    
      11740                4000.00    
      11741                4000.00    
      11742                4000.00    
      11743                4000.00    
      11744                4000.00    
      11745                4000.00    
      11746                4000.00    
      11747                4000.00    
      11748                4000.00    
      11749                4000.00    
      11750                4000.00    
      11751                4000.00    
      11752                4000.00    
      11753                4000.00    
      11754                4000.00    
      11755                4000.00    
      11756                4000.00    
      11757                4000.00    
      11758                4000.00    
      11759                4000.00    
      11760                4000.00    
      11761                4000.00    
      11762                4000.00    
      11763                4000.00    
      11764                4000.00    
      11765                4000.00    
      11766                4000.00    
      11767                4000.00    
      11768                4000.00    
      11769                4000.00    
      11770                4000.00    
      11771                4000.00    
      11772                4000.00    
      11773                4000.00    
      11774                4000.00    
      11775                4000.00    
      11776                4000.00    
      11777                4000.00    
      11778                4000.00    
      11779                4000.00    
      11780                4000.00    
      11781                4000.00    
      11782                4000.00    
      11783                4000.00    
      11784                4000.00    
      11785                4000.00    
      11786                4000.00    
      11787                4000.00    
      11788                4000.00    
      11789                4000.00    
      11790                4000.00    
      11791                4000.00    
      11792                4000.00    
      11793                4000.00    
      11794                4000.00    
      11795                4000.00    
      11796                4000.00    
      11797                4000.00    
      11798                4000.00    
      11799                4000.00    
      11800                4000.00    
      11801                4000.00    
      11802                4000.00    
      11803                4000.00    
      11804                4000.00    
      11805                4000.00    
      11806                4000.00    
      11807                4000.00    
      11808                4000.00    
      11809                4000.00    
      11810                4000.00    
      11811                4000.00    
      11812                4000.00    
      11813                4000.00    
      11814                4000.00    
      11815                4000.00    
      11816                4000.00    
      11817                4000.00    
      11818                4000.00    
      11819                4000.00    
      11820                4000.00    
      11821                4000.00    
      11822                4000.00    
      11823                4000.00    
      11824                4000.00    
      11825                4000.00    
      11826                4000.00    
      11827                4000.00    
      11828                4000.00    
      11829                4000.00    
      11830                4000.00    
      11831                4000.00    
      11832                4000.00    
      11833                4000.00    
      11834                4000.00    
      11835                4000.00    
      11836                4000.00    
      11837                4000.00    
      11838                4000.00    
      11839                4000.00    
      11840                4000.00    
      11841                4000.00    
      11842                4000.00    
      11843                4000.00    
      11844                4000.00    
      11845                4000.00    
      11846                4000.00    
      11847                4000.00    
      11848                4000.00    
      11849                4000.00    
      11850                4000.00    
      11851                4000.00    
      11852                4000.00    
      11853                4000.00    
      11854                4000.00    
      11855                4000.00    
      11856                4000.00    
      11857                4000.00    
      11858                4000.00    
      11859                4000.00    
      11860                4000.00    
      11861                4000.00    
      11862                4000.00    
      11863                4000.00    
      11864                4000.00    
      11865                4000.00    
      11866                4000.00    
      11867                4000.00    
      11868                4000.00    
      11869                4000.00    
      11870                4000.00    
      11871                4000.00    
      11872                4000.00    
      11873                4000.00    
      11874                4000.00    
      11875                4000.00    
      11876                4000.00    
      11877                4000.00    
      11878                4000.00    
      11879                4000.00    
      11880                4000.00    
      11881                4000.00    
      11882                4000.00    
      11883                4000.00    
      11884                4000.00    
      11885                4000.00    
      11886                4000.00    
      11887                4000.00    
      11888                4000.00    
      11889                4000.00    
      11890                4000.00    
      11891                4000.00    
      11892                4000.00    
      11893                4000.00    
      11894                4000.00    
      11895                4000.00    
      11896                4000.00    
      11897                4000.00    
      11898                4000.00    
      11899                4000.00    
      11900                4000.00    
      11901                4000.00    
      11902                4000.00    
      11903                4000.00    
      11904                4000.00    
      11905                4000.00    
      11906                4000.00    
      11907                4000.00    
      11908                4000.00    
      11909                4000.00    
      11910                4000.00    
      11911                4000.00    
      11912                4000.00    
      11913                4000.00    
      11914                4000.00    
      11915                4000.00    
      11916                4000.00    
      11917                4000.00    
      11918                4000.00    
      11919                4000.00    
      11920                4000.00    
      11921                4000.00    
      11922                4000.00    
      11923                4000.00    
      11924                4000.00    
      11925                4000.00    
      11926                4000.00    
      11927                4000.00    
      11928                4000.00    
      11929                4000.00    
      11930                4000.00    
      11931                4000.00    
      11932                4000.00    
      11933                4000.00    
      11934                4000.00    
      11935                4000.00    
      11936                4000.00    
      11937                4000.00    
      11938                4000.00    
      11939                4000.00    
      11940                4000.00    
      11941                4000.00    
      11942                4000.00    
      11943                4000.00    
      11944                4000.00    
      11945                4000.00    
      11946                4000.00    
      11947                4000.00    
      11948                4000.00    
      11949                4000.00    
      11950                4000.00    
      11951                4000.00    
      11952                4000.00    
      11953                4000.00    
      11954                4000.00    
      11955                4000.00    
      11956                4000.00    
      11957                4000.00    
      11958                4000.00    
