
****************************************************************
****************************************************************
**                                                            **
**                                                            **
**        CCC     OO      SSS    M    M     OO      SSS       **
**       C       O  O    S       MM  MM    O  O    S          **
**       C       O  O     SS     M MM M    O  O     SS        **
**       C       O  O       S    M    M    O  O       S       **
**        CCC     OO     SSS     M    M     OO     SSS        **
**                                                            **
**                                                            **
**                Fatigue(FSTAR)                              **
**           Distributed By: SolidWorks Corporation           **
**               12121 Wilshire Blvd. Suite 700               **
**               Los Angeles, California  90025               **
**               Telephone Number (310)207-2800               **
**         Copyright 1988-2016 SolidWorks Corporation         **
**                                                            **
****************************************************************
****************************************************************

Licensed to:                



--------------------------------------------------------------------------
COSMOS                   FATIGUE MODULE              8/ 8/2023    1:32:45
--------------------------------------------------------------------------


 Title :                                                                       





F A T I G U E   P R O P E R T I E S :


Load Amplitude Type . . . . . . . . . . . . . . . . =       0
       EQ. 0, Constant Amplitude
       EQ. 1, Variable Amplitude

Activated Location  . . . . . . . . . . . . . . . . =       0
       EQ. 0, Whole Model
       EQ. 1, Surface Only


Shell Surface . . . . . . . . . . . . . . . . . . . =       1
       EQ. 1, Top
       EQ. 2, Bottom


Shell Layer . . . . . . . . . . . . . . . . . . . . =       0


Event Interaction . . . . . . . . . . . . . . . . . =       0
       EQ. 0, Random
       EQ. 1, No interaction


Alternating Stress  . . . . . . . . . . . . . . . . =       0
       EQ. 0, Intensity
       EQ. 1, Von mises
       EQ. 2, Max. Principal


Mean Stress Correction  . . . . . . . . . . . . . . =       0
       EQ. 0, No Correction
       EQ. 1, Soderberg
       EQ. 2, Goodman
       EQ. 3, Gerber


Fatigue Strength Reduction Factor (Kt)  . . . . . . =  1.0000


Infinite Life . . . . . . . . . . . . . . . . . . . =       0
       EQ. 0, Not Defined
       EQ. 1, Defined




E V E N T   P A R A M E T E R S:

          No. of    Associated      Load Case(s)/      Scale
  Event   Cycles    Loading(s)      Time Step(s)       factor
  -----   ------    ----------       -----------       ------
    1  0.400E+10        1                1             1.00    
                        2                1            0.900    
  
  




         S - N   C U R V E  #     1

(Material set #    1; Stress ratio:-1.00)
          (Log-Log interplolation)


  POINT No.   No. of Cycles     Alt. Stress
  ---------   -------------     -----------
     1         43.0             0.131E+10
     2         62.0             0.113E+10
     3         63.0             0.112E+10
     4         92.0             0.952E+09
     5         111.             0.882E+09
     6         113.             0.876E+09
     7         571.             0.447E+09
     8         584.             0.442E+09
     9         611.             0.437E+09
    10        0.160E+04         0.372E+09
    11        0.192E+04         0.361E+09
    12        0.193E+04         0.361E+09
    13        0.195E+04         0.360E+09
    14        0.207E+04         0.357E+09
    15        0.220E+04         0.353E+09
    16        0.222E+04         0.353E+09
    17        0.227E+04         0.351E+09
    18        0.962E+04         0.276E+09
    19        0.964E+04         0.276E+09
    20        0.990E+04         0.275E+09
    21        0.113E+05         0.269E+09
    22        0.115E+05         0.268E+09
    23        0.117E+05         0.268E+09
    24        0.305E+05         0.228E+09
    25        0.318E+05         0.227E+09
    26        0.563E+05         0.206E+09
    27        0.400E+10         0.441E+08



F A T I G U E   C A L C U L A T I O N   R E S U L T S:


              (all-nodes option)   

                        cumulative fatigue
        node                usage factor 
       ------           ------------------
          1                1.00000    
          2                1.00000    
          3                1.00000    
          4                1.00000    
          5                1.00000    
          6                1.00000    
          7                1.00000    
          8                1.00000    
          9                1.00000    
         10                1.00000    
         11                1.00000    
         12                1.00000    
         13                1.00000    
         14                1.00000    
         15                1.00000    
         16                1.00000    
         17                1.00000    
         18                1.00000    
         19                1.00000    
         20                1.00000    
         21                1.00000    
         22                1.00000    
         23                1.00000    
         24                1.00000    
         25                1.00000    
         26                1.00000    
         27                1.00000    
         28                1.00000    
         29                1.00000    
         30                1.00000    
         31                1.00000    
         32                1.00000    
         33                1.00000    
         34                1.00000    
         35                1.00000    
         36                1.00000    
         37                1.00000    
         38                1.00000    
         39                1.00000    
         40                1.00000    
         41                1.00000    
         42                1.00000    
         43                1.00000    
         44                1.00000    
         45                1.00000    
         46                1.00000    
         47                1.00000    
         48                1.00000    
         49                1.00000    
         50                1.00000    
         51                1.00000    
         52                1.00000    
         53                1.00000    
         54                1.00000    
         55                1.00000    
         56                1.00000    
         57                1.00000    
         58                1.00000    
         59                1.00000    
         60                1.00000    
         61                1.00000    
         62                1.00000    
         63                1.00000    
         64                1.00000    
         65                1.00000    
         66                1.00000    
         67                1.00000    
         68                1.00000    
         69                1.00000    
         70                1.00000    
         71                1.00000    
         72                1.00000    
         73                1.00000    
         74                1.00000    
         75                1.00000    
         76                1.00000    
         77                1.00000    
         78                1.00000    
         79                1.00000    
         80                1.00000    
         81                1.00000    
         82                1.00000    
         83                1.00000    
         84                1.00000    
         85                1.00000    
         86                1.00000    
         87                1.00000    
         88                1.00000    
         89                1.00000    
         90                1.00000    
         91                1.00000    
         92                1.00000    
         93                1.00000    
         94                1.00000    
         95                1.00000    
         96                1.00000    
         97                1.00000    
         98                1.00000    
         99                1.00000    
        100                1.00000    
        101                1.00000    
        102                1.00000    
        103                1.00000    
        104                1.00000    
        105                1.00000    
        106                1.00000    
        107                1.00000    
        108                1.00000    
        109                1.00000    
        110                1.00000    
        111                1.00000    
        112                1.00000    
        113                1.00000    
        114                1.00000    
        115                1.00000    
        116                1.00000    
        117                1.00000    
        118                1.00000    
        119                1.00000    
        120                1.00000    
        121                1.00000    
        122                1.00000    
        123                1.00000    
        124                1.00000    
        125                1.00000    
        126                1.00000    
        127                1.00000    
        128                1.00000    
        129                1.00000    
        130                1.00000    
        131                1.00000    
        132                1.00000    
        133                1.00000    
        134                1.00000    
        135                1.00000    
        136                1.00000    
        137                1.00000    
        138                1.00000    
        139                1.00000    
        140                1.00000    
        141                1.00000    
        142                1.00000    
        143                1.00000    
        144                1.00000    
        145                1.00000    
        146                1.00000    
        147                1.00000    
        148                1.00000    
        149                1.00000    
        150                1.00000    
        151                1.00000    
        152                1.00000    
        153                1.00000    
        154                1.00000    
        155                1.00000    
        156                1.00000    
        157                1.00000    
        158                1.00000    
        159                1.00000    
        160                1.00000    
        161                1.00000    
        162                1.00000    
        163                1.00000    
        164                1.00000    
        165                1.00000    
        166                1.00000    
        167                1.00000    
        168                1.00000    
        169                1.00000    
        170                1.00000    
        171                1.00000    
        172                1.00000    
        173                1.00000    
        174                1.00000    
        175                1.00000    
        176                1.00000    
        177                1.00000    
        178                1.00000    
        179                1.00000    
        180                1.00000    
        181                1.00000    
        182                1.00000    
        183                1.00000    
        184                1.00000    
        185                1.00000    
        186                1.00000    
        187                1.00000    
        188                1.00000    
        189                1.00000    
        190                1.00000    
        191                1.00000    
        192                1.00000    
        193                1.00000    
        194                1.00000    
        195                1.00000    
        196                1.00000    
        197                1.00000    
        198                1.00000    
        199                1.00000    
        200                1.00000    
        201                1.00000    
        202                1.00000    
        203                1.00000    
        204                1.00000    
        205                1.00000    
        206                1.00000    
        207                1.00000    
        208                1.00000    
        209                1.00000    
        210                1.00000    
        211                1.00000    
        212                1.00000    
        213                1.00000    
        214                1.00000    
        215                1.00000    
        216                1.00000    
        217                1.00000    
        218                1.00000    
        219                1.00000    
        220                1.00000    
        221                1.00000    
        222                1.00000    
        223                1.00000    
        224                1.00000    
        225                1.00000    
        226                1.00000    
        227                1.00000    
        228                1.00000    
        229                1.00000    
        230                1.00000    
        231                1.00000    
        232                1.00000    
        233                1.00000    
        234                1.00000    
        235                1.00000    
        236                1.00000    
        237                1.00000    
        238                1.00000    
        239                1.00000    
        240                1.00000    
        241                1.00000    
        242                1.00000    
        243                1.00000    
        244                1.00000    
        245                1.00000    
        246                1.00000    
        247                1.00000    
        248                1.00000    
        249                1.00000    
        250                1.00000    
        251                1.00000    
        252                1.00000    
        253                1.00000    
        254                1.00000    
        255                1.00000    
        256                1.00000    
        257                1.00000    
        258                1.00000    
        259                1.00000    
        260                1.00000    
        261                1.00000    
        262                1.00000    
        263                1.00000    
        264                1.00000    
        265                1.00000    
        266                1.00000    
        267                1.00000    
        268                1.00000    
        269                1.00000    
        270                1.00000    
        271                1.00000    
        272                1.00000    
        273                1.00000    
        274                1.00000    
        275                1.00000    
        276                1.00000    
        277                1.00000    
        278                1.00000    
        279                1.00000    
        280                1.00000    
        281                1.00000    
        282                1.00000    
        283                1.00000    
        284                1.00000    
        285                1.00000    
        286                1.00000    
        287                1.00000    
        288                1.00000    
        289                1.00000    
        290                1.00000    
        291                1.00000    
        292                1.00000    
        293                1.00000    
        294                1.00000    
        295                1.00000    
        296                1.00000    
        297                1.00000    
        298                1.00000    
        299                1.00000    
        300                1.00000    
        301                1.00000    
        302                1.00000    
        303                1.00000    
        304                1.00000    
        305                1.00000    
        306                1.00000    
        307                1.00000    
        308                1.00000    
        309                1.00000    
        310                1.00000    
        311                1.00000    
        312                1.00000    
        313                1.00000    
        314                1.00000    
        315                1.00000    
        316                1.00000    
        317                1.00000    
        318                1.00000    
        319                1.00000    
        320                1.00000    
        321                1.00000    
        322                1.00000    
        323                1.00000    
        324                1.00000    
        325                1.00000    
        326                1.00000    
        327                1.00000    
        328                1.00000    
        329                1.00000    
        330                1.00000    
        331                1.00000    
        332                1.00000    
        333                1.00000    
        334                1.00000    
        335                1.00000    
        336                1.00000    
        337                1.00000    
        338                1.00000    
        339                1.00000    
        340                1.00000    
        341                1.00000    
        342                1.00000    
        343                1.00000    
        344                1.00000    
        345                1.00000    
        346                1.00000    
        347                1.00000    
        348                1.00000    
        349                1.00000    
        350                1.00000    
        351                1.00000    
        352                1.00000    
        353                1.00000    
        354                1.00000    
        355                1.00000    
        356                1.00000    
        357                1.00000    
        358                1.00000    
        359                1.00000    
        360                1.00000    
        361                1.00000    
        362                1.00000    
        363                1.00000    
        364                1.00000    
        365                1.00000    
        366                1.00000    
        367                1.00000    
        368                1.00000    
        369                1.00000    
        370                1.00000    
        371                1.00000    
        372                1.00000    
        373                1.00000    
        374                1.00000    
        375                1.00000    
        376                1.00000    
        377                1.00000    
        378                1.00000    
        379                1.00000    
        380                1.00000    
        381                1.00000    
        382                1.00000    
        383                1.00000    
        384                1.00000    
        385                1.00000    
        386                1.00000    
        387                1.00000    
        388                1.00000    
        389                1.00000    
        390                1.00000    
        391                1.00000    
        392                1.00000    
        393                1.00000    
        394                1.00000    
        395                1.00000    
        396                1.00000    
        397                1.00000    
        398                1.00000    
        399                1.00000    
        400                1.00000    
        401                1.00000    
        402                1.00000    
        403                1.00000    
        404                1.00000    
        405                1.00000    
        406                1.00000    
        407                1.00000    
        408                1.00000    
        409                1.00000    
        410                1.00000    
        411                1.00000    
        412                1.00000    
        413                1.00000    
        414                1.00000    
        415                1.00000    
        416                1.00000    
        417                1.00000    
        418                1.00000    
        419                1.00000    
        420                1.00000    
        421                1.00000    
        422                1.00000    
        423                1.00000    
        424                1.00000    
        425                1.00000    
        426                1.00000    
        427                1.00000    
        428                1.00000    
        429                1.00000    
        430                1.00000    
        431                1.00000    
        432                1.00000    
        433                1.00000    
        434                1.00000    
        435                1.00000    
        436                1.00000    
        437                1.00000    
        438                1.00000    
        439                1.00000    
        440                1.00000    
        441                1.00000    
        442                1.00000    
        443                1.00000    
        444                1.00000    
        445                1.00000    
        446                1.00000    
        447                1.00000    
        448                1.00000    
        449                1.00000    
        450                1.00000    
        451                1.00000    
        452                1.00000    
        453                1.00000    
        454                1.00000    
        455                1.00000    
        456                1.00000    
        457                1.00000    
        458                1.00000    
        459                1.00000    
        460                1.00000    
        461                1.00000    
        462                1.00000    
        463                1.00000    
        464                1.00000    
        465                1.00000    
        466                1.00000    
        467                1.00000    
        468                1.00000    
        469                1.00000    
        470                1.00000    
        471                1.00000    
        472                1.00000    
        473                1.00000    
        474                1.00000    
        475                1.00000    
        476                1.00000    
        477                1.00000    
        478                1.00000    
        479                1.00000    
        480                1.00000    
        481                1.00000    
        482                1.00000    
        483                1.00000    
        484                1.00000    
        485                1.00000    
        486                1.00000    
        487                1.00000    
        488                1.00000    
        489                1.00000    
        490                1.00000    
        491                1.00000    
        492                1.00000    
        493                1.00000    
        494                1.00000    
        495                1.00000    
        496                1.00000    
        497                1.00000    
        498                1.00000    
        499                1.00000    
        500                1.00000    
        501                1.00000    
        502                1.00000    
        503                1.00000    
        504                1.00000    
        505                1.00000    
        506                1.00000    
        507                1.00000    
        508                1.00000    
        509                1.00000    
        510                1.00000    
        511                1.00000    
        512                1.00000    
        513                1.00000    
        514                1.00000    
        515                1.00000    
        516                1.00000    
        517                1.00000    
        518                1.00000    
        519                1.00000    
        520                1.00000    
        521                1.00000    
        522                1.00000    
        523                1.00000    
        524                1.00000    
        525                1.00000    
        526                1.00000    
        527                1.00000    
        528                1.00000    
        529                1.00000    
        530                1.00000    
        531                1.00000    
        532                1.00000    
        533                1.00000    
        534                1.00000    
        535                1.00000    
        536                1.00000    
        537                1.00000    
        538                1.00000    
        539                1.00000    
        540                1.00000    
        541                1.00000    
        542                1.00000    
        543                1.00000    
        544                1.00000    
        545                1.00000    
        546                1.00000    
        547                1.00000    
        548                1.00000    
        549                1.00000    
        550                1.00000    
        551                1.00000    
        552                1.00000    
        553                1.00000    
        554                1.00000    
        555                1.00000    
        556                1.00000    
        557                1.00000    
        558                1.00000    
        559                1.00000    
        560                1.00000    
        561                1.00000    
        562                1.00000    
        563                1.00000    
        564                1.00000    
        565                1.00000    
        566                1.00000    
        567                1.00000    
        568                1.00000    
        569                1.00000    
        570                1.00000    
        571                1.00000    
        572                1.00000    
        573                1.00000    
        574                1.00000    
        575                1.00000    
        576                1.00000    
        577                1.00000    
        578                1.00000    
        579                1.00000    
        580                1.00000    
        581                1.00000    
        582                1.00000    
        583                1.00000    
        584                1.00000    
        585                1.00000    
        586                1.00000    
        587                1.00000    
        588                1.00000    
        589                1.00000    
        590                1.00000    
        591                1.00000    
        592                1.00000    
        593                1.00000    
        594                1.00000    
        595                1.00000    
        596                1.00000    
        597                1.00000    
        598                1.00000    
        599                1.00000    
        600                1.00000    
        601                1.00000    
        602                1.00000    
        603                1.00000    
        604                1.00000    
        605                1.00000    
        606                1.00000    
        607                1.00000    
        608                1.00000    
        609                1.00000    
        610                1.00000    
        611                1.00000    
        612                1.00000    
        613                1.00000    
        614                1.00000    
        615                1.00000    
        616                1.00000    
        617                1.00000    
        618                1.00000    
        619                1.00000    
        620                1.00000    
        621                1.00000    
        622                1.00000    
        623                1.00000    
        624                1.00000    
        625                1.00000    
        626                1.00000    
        627                1.00000    
        628                1.00000    
        629                1.00000    
        630                1.00000    
        631                1.00000    
        632                1.00000    
        633                1.00000    
        634                1.00000    
        635                1.00000    
        636                1.00000    
        637                1.00000    
        638                1.00000    
        639                1.00000    
        640                1.00000    
        641                1.00000    
        642                1.00000    
        643                1.00000    
        644                1.00000    
        645                1.00000    
        646                1.00000    
        647                1.00000    
        648                1.00000    
        649                1.00000    
        650                1.00000    
        651                1.00000    
        652                1.00000    
        653                1.00000    
        654                1.00000    
        655                1.00000    
        656                1.00000    
        657                1.00000    
        658                1.00000    
        659                1.00000    
        660                1.00000    
        661                1.00000    
        662                1.00000    
        663                1.00000    
        664                1.00000    
        665                1.00000    
        666                1.00000    
        667                1.00000    
        668                1.00000    
        669                1.00000    
        670                1.00000    
        671                1.00000    
        672                1.00000    
        673                1.00000    
        674                1.00000    
        675                1.00000    
        676                1.00000    
        677                1.00000    
        678                1.00000    
        679                1.00000    
        680                1.00000    
        681                1.00000    
        682                1.00000    
        683                1.00000    
        684                1.00000    
        685                1.00000    
        686                1.00000    
        687                1.00000    
        688                1.00000    
        689                1.00000    
        690                1.00000    
        691                1.00000    
        692                1.00000    
        693                1.00000    
        694                1.00000    
        695                1.00000    
        696                1.00000    
        697                1.00000    
        698                1.00000    
        699                1.00000    
        700                1.00000    
        701                1.00000    
        702                1.00000    
        703                1.00000    
        704                1.00000    
        705                1.00000    
        706                1.00000    
        707                1.00000    
        708                1.00000    
        709                1.00000    
        710                1.00000    
        711                1.00000    
        712                1.00000    
        713                1.00000    
        714                1.00000    
        715                1.00000    
        716                1.00000    
        717                1.00000    
        718                1.00000    
        719                1.00000    
        720                1.00000    
        721                1.00000    
        722                1.00000    
        723                1.00000    
        724                1.00000    
        725                1.00000    
        726                1.00000    
        727                1.00000    
        728                1.00000    
        729                1.00000    
        730                1.00000    
        731                1.00000    
        732                1.00000    
        733                1.00000    
        734                1.00000    
        735                1.00000    
        736                1.00000    
        737                1.00000    
        738                1.00000    
        739                1.00000    
        740                1.00000    
        741                1.00000    
        742                1.00000    
        743                1.00000    
        744                1.00000    
        745                1.00000    
        746                1.00000    
        747                1.00000    
        748                1.00000    
        749                1.00000    
        750                1.00000    
        751                1.00000    
        752                1.00000    
        753                1.00000    
        754                1.00000    
        755                1.00000    
        756                1.00000    
        757                1.00000    
        758                1.00000    
        759                1.00000    
        760                1.00000    
        761                1.00000    
        762                1.00000    
        763                1.00000    
        764                1.00000    
        765                1.00000    
        766                1.00000    
        767                1.00000    
        768                1.00000    
        769                1.00000    
        770                1.00000    
        771                1.00000    
        772                1.00000    
        773                1.00000    
        774                1.00000    
        775                1.00000    
        776                1.00000    
        777                1.00000    
        778                1.00000    
        779                1.00000    
        780                1.00000    
        781                1.00000    
        782                1.00000    
        783                1.00000    
        784                1.00000    
        785                1.00000    
        786                1.00000    
        787                1.00000    
        788                1.00000    
        789                1.00000    
        790                1.00000    
        791                1.00000    
        792                1.00000    
        793                1.00000    
        794                1.00000    
        795                1.00000    
        796                1.00000    
        797                1.00000    
        798                1.00000    
        799                1.00000    
        800                1.00000    
        801                1.00000    
        802                1.00000    
        803                1.00000    
        804                1.00000    
        805                1.00000    
        806                1.00000    
        807                1.00000    
        808                1.00000    
        809                1.00000    
        810                1.00000    
        811                1.00000    
        812                1.00000    
        813                1.00000    
        814                1.00000    
        815                1.00000    
        816                1.00000    
        817                1.00000    
        818                1.00000    
        819                1.00000    
        820                1.00000    
        821                1.00000    
        822                1.00000    
        823                1.00000    
        824                1.00000    
        825                1.00000    
        826                1.00000    
        827                1.00000    
        828                1.00000    
        829                1.00000    
        830                1.00000    
        831                1.00000    
        832                1.00000    
        833                1.00000    
        834                1.00000    
        835                1.00000    
        836                1.00000    
        837                1.00000    
        838                1.00000    
        839                1.00000    
        840                1.00000    
        841                1.00000    
        842                1.00000    
        843                1.00000    
        844                1.00000    
        845                1.00000    
        846                1.00000    
        847                1.00000    
        848                1.00000    
        849                1.00000    
        850                1.00000    
        851                1.00000    
        852                1.00000    
        853                1.00000    
        854                1.00000    
        855                1.00000    
        856                1.00000    
        857                1.00000    
        858                1.00000    
        859                1.00000    
        860                1.00000    
        861                1.00000    
        862                1.00000    
        863                1.00000    
        864                1.00000    
        865                1.00000    
        866                1.00000    
        867                1.00000    
        868                1.00000    
        869                1.00000    
        870                1.00000    
        871                1.00000    
        872                1.00000    
        873                1.00000    
        874                1.00000    
        875                1.00000    
        876                1.00000    
        877                1.00000    
        878                1.00000    
        879                1.00000    
        880                1.00000    
        881                1.00000    
        882                1.00000    
        883                1.00000    
        884                1.00000    
        885                1.00000    
        886                1.00000    
        887                1.00000    
        888                1.00000    
        889                1.00000    
        890                1.00000    
        891                1.00000    
        892                1.00000    
        893                1.00000    
        894                1.00000    
        895                1.00000    
        896                1.00000    
        897                1.00000    
        898                1.00000    
        899                1.00000    
        900                1.00000    
        901                1.00000    
        902                1.00000    
        903                1.00000    
        904                1.00000    
        905                1.00000    
        906                1.00000    
        907                1.00000    
        908                1.00000    
        909                1.00000    
        910                1.00000    
        911                1.00000    
        912                1.00000    
        913                1.00000    
        914                1.00000    
        915                1.00000    
        916                1.00000    
        917                1.00000    
        918                1.00000    
        919                1.00000    
        920                1.00000    
        921                1.00000    
        922                1.00000    
        923                1.00000    
        924                1.00000    
        925                1.00000    
        926                1.00000    
        927                1.00000    
        928                1.00000    
        929                1.00000    
        930                1.00000    
        931                1.00000    
        932                1.00000    
        933                1.00000    
        934                1.00000    
        935                1.00000    
        936                1.00000    
        937                1.00000    
        938                1.00000    
        939                1.00000    
        940                1.00000    
        941                1.00000    
        942                1.00000    
        943                1.00000    
        944                1.00000    
        945                1.00000    
        946                1.00000    
        947                1.00000    
        948                1.00000    
        949                1.00000    
        950                1.00000    
        951                1.00000    
        952                1.00000    
        953                1.00000    
        954                1.00000    
        955                1.00000    
        956                1.00000    
        957                1.00000    
        958                1.00000    
        959                1.00000    
        960                1.00000    
        961                1.00000    
        962                1.00000    
        963                1.00000    
        964                1.00000    
        965                1.00000    
        966                1.00000    
        967                1.00000    
        968                1.00000    
        969                1.00000    
        970                1.00000    
        971                1.00000    
        972                1.00000    
        973                1.00000    
        974                1.00000    
        975                1.00000    
        976                1.00000    
        977                1.00000    
        978                1.00000    
        979                1.00000    
        980                1.00000    
        981                1.00000    
        982                1.00000    
        983                1.00000    
        984                1.00000    
        985                1.00000    
        986                1.00000    
        987                1.00000    
        988                1.00000    
        989                1.00000    
        990                1.00000    
        991                1.00000    
        992                1.00000    
        993                1.00000    
        994                1.00000    
        995                1.00000    
        996                1.00000    
        997                1.00000    
        998                1.00000    
        999                1.00000    
       1000                1.00000    
       1001                1.00000    
       1002                1.00000    
       1003                1.00000    
       1004                1.00000    
       1005                1.00000    
       1006                1.00000    
       1007                1.00000    
       1008                1.00000    
       1009                1.00000    
       1010                1.00000    
       1011                1.00000    
       1012                1.00000    
       1013                1.00000    
       1014                1.00000    
       1015                1.00000    
       1016                1.00000    
       1017                1.00000    
       1018                1.00000    
       1019                1.00000    
       1020                1.00000    
       1021                1.00000    
       1022                1.00000    
       1023                1.00000    
       1024                1.00000    
       1025                1.00000    
       1026                1.00000    
       1027                1.00000    
       1028                1.00000    
       1029                1.00000    
       1030                1.00000    
       1031                1.00000    
       1032                1.00000    
       1033                1.00000    
       1034                1.00000    
       1035                1.00000    
       1036                1.00000    
       1037                1.00000    
       1038                1.00000    
       1039                1.00000    
       1040                1.00000    
       1041                1.00000    
       1042                1.00000    
       1043                1.00000    
       1044                1.00000    
       1045                1.00000    
       1046                1.00000    
       1047                1.00000    
       1048                1.00000    
       1049                1.00000    
       1050                1.00000    
       1051                1.00000    
       1052                1.00000    
       1053                1.00000    
       1054                1.00000    
       1055                1.00000    
       1056                1.00000    
       1057                1.00000    
       1058                1.00000    
       1059                1.00000    
       1060                1.00000    
       1061                1.00000    
       1062                1.00000    
       1063                1.00000    
       1064                1.00000    
       1065                1.00000    
       1066                1.00000    
       1067                1.00000    
       1068                1.00000    
       1069                1.00000    
       1070                1.00000    
       1071                1.00000    
       1072                1.00000    
       1073                1.00000    
       1074                1.00000    
       1075                1.00000    
       1076                1.00000    
       1077                1.00000    
       1078                1.00000    
       1079                1.00000    
       1080                1.00000    
       1081                1.00000    
       1082                1.00000    
       1083                1.00000    
       1084                1.00000    
       1085                1.00000    
       1086                1.00000    
       1087                1.00000    
       1088                1.00000    
       1089                1.00000    
       1090                1.00000    
       1091                1.00000    
       1092                1.00000    
       1093                1.00000    
       1094                1.00000    
       1095                1.00000    
       1096                1.00000    
       1097                1.00000    
       1098                1.00000    
       1099                1.00000    
       1100                1.00000    
       1101                1.00000    
       1102                1.00000    
       1103                1.00000    
       1104                1.00000    
       1105                1.00000    
       1106                1.00000    
       1107                1.00000    
       1108                1.00000    
       1109                1.00000    
       1110                1.00000    
       1111                1.00000    
       1112                1.00000    
       1113                1.00000    
       1114                1.00000    
       1115                1.00000    
       1116                1.00000    
       1117                1.00000    
       1118                1.00000    
       1119                1.00000    
       1120                1.00000    
       1121                1.00000    
       1122                1.00000    
       1123                1.00000    
       1124                1.00000    
       1125                1.00000    
       1126                1.00000    
       1127                1.00000    
       1128                1.00000    
       1129                1.00000    
       1130                1.00000    
       1131                1.00000    
       1132                1.00000    
       1133                1.00000    
       1134                1.00000    
       1135                1.00000    
       1136                1.00000    
       1137                1.00000    
       1138                1.00000    
       1139                1.00000    
       1140                1.00000    
       1141                1.00000    
       1142                1.00000    
       1143                1.00000    
       1144                1.00000    
       1145                1.00000    
       1146                1.00000    
       1147                1.00000    
       1148                1.00000    
       1149                1.00000    
       1150                1.00000    
       1151                1.00000    
       1152                1.00000    
       1153                1.00000    
       1154                1.00000    
       1155                1.00000    
       1156                1.00000    
       1157                1.00000    
       1158                1.00000    
       1159                1.00000    
       1160                1.00000    
       1161                1.00000    
       1162                1.00000    
       1163                1.00000    
       1164                1.00000    
       1165                1.00000    
       1166                1.00000    
       1167                1.00000    
       1168                1.00000    
       1169                1.00000    
       1170                1.00000    
       1171                1.00000    
       1172                1.00000    
       1173                1.00000    
       1174                1.00000    
       1175                1.00000    
       1176                1.00000    
       1177                1.00000    
       1178                1.00000    
       1179                1.00000    
       1180                1.00000    
       1181                1.00000    
       1182                1.00000    
       1183                1.00000    
       1184                1.00000    
       1185                1.00000    
       1186                1.00000    
       1187                1.00000    
       1188                1.00000    
       1189                1.00000    
       1190                1.00000    
       1191                1.00000    
       1192                1.00000    
       1193                1.00000    
       1194                1.00000    
       1195                1.00000    
       1196                1.00000    
       1197                1.00000    
       1198                1.00000    
       1199                1.00000    
       1200                1.00000    
       1201                1.00000    
       1202                1.00000    
       1203                1.00000    
       1204                1.00000    
       1205                1.00000    
       1206                1.00000    
       1207                1.00000    
       1208                1.00000    
       1209                1.00000    
       1210                1.00000    
       1211                1.00000    
       1212                1.00000    
       1213                1.00000    
       1214                1.00000    
       1215                1.00000    
       1216                1.00000    
       1217                1.00000    
       1218                1.00000    
       1219                1.00000    
       1220                1.00000    
       1221                1.00000    
       1222                1.00000    
       1223                1.00000    
       1224                1.00000    
       1225                1.00000    
       1226                1.00000    
       1227                1.00000    
       1228                1.00000    
       1229                1.00000    
       1230                1.00000    
       1231                1.00000    
       1232                1.00000    
       1233                1.00000    
       1234                1.00000    
       1235                1.00000    
       1236                1.00000    
       1237                1.00000    
       1238                1.00000    
       1239                1.00000    
       1240                1.00000    
       1241                1.00000    
       1242                1.00000    
       1243                1.00000    
       1244                1.00000    
       1245                1.00000    
       1246                1.00000    
       1247                1.00000    
       1248                1.00000    
       1249                1.00000    
       1250                1.00000    
       1251                1.00000    
       1252                1.00000    
       1253                1.00000    
       1254                1.00000    
       1255                1.00000    
       1256                1.00000    
       1257                1.00000    
       1258                1.00000    
       1259                1.00000    
       1260                1.00000    
       1261                1.00000    
       1262                1.00000    
       1263                1.00000    
       1264                1.00000    
       1265                1.00000    
       1266                1.00000    
       1267                1.00000    
       1268                1.00000    
       1269                1.00000    
       1270                1.00000    
       1271                1.00000    
       1272                1.00000    
       1273                1.00000    
       1274                1.00000    
       1275                1.00000    
       1276                1.00000    
       1277                1.00000    
       1278                1.00000    
       1279                1.00000    
       1280                1.00000    
       1281                1.00000    
       1282                1.00000    
       1283                1.00000    
       1284                1.00000    
       1285                1.00000    
       1286                1.00000    
       1287                1.00000    
       1288                1.00000    
       1289                1.00000    
       1290                1.00000    
       1291                1.00000    
       1292                1.00000    
       1293                1.00000    
       1294                1.00000    
       1295                1.00000    
       1296                1.00000    
       1297                1.00000    
       1298                1.00000    
       1299                1.00000    
       1300                1.00000    
       1301                1.00000    
       1302                1.00000    
       1303                1.00000    
       1304                1.00000    
       1305                1.00000    
       1306                1.00000    
       1307                1.00000    
       1308                1.00000    
       1309                1.00000    
       1310                1.00000    
       1311                1.00000    
       1312                1.00000    
       1313                1.00000    
       1314                1.00000    
       1315                1.00000    
       1316                1.00000    
       1317                1.00000    
       1318                1.00000    
       1319                1.00000    
       1320                1.00000    
       1321                1.00000    
       1322                1.00000    
       1323                1.00000    
       1324                1.00000    
       1325                1.00000    
       1326                1.00000    
       1327                1.00000    
       1328                1.00000    
       1329                1.00000    
       1330                1.00000    
       1331                1.00000    
       1332                1.00000    
       1333                1.00000    
       1334                1.00000    
       1335                1.00000    
       1336                1.00000    
       1337                1.00000    
       1338                1.00000    
       1339                1.00000    
       1340                1.00000    
       1341                1.00000    
       1342                1.00000    
       1343                1.00000    
       1344                1.00000    
       1345                1.00000    
       1346                1.00000    
       1347                1.00000    
       1348                1.00000    
       1349                1.00000    
       1350                1.00000    
       1351                1.00000    
       1352                1.00000    
       1353                1.00000    
       1354                1.00000    
       1355                1.00000    
       1356                1.00000    
       1357                1.00000    
       1358                1.00000    
       1359                1.00000    
       1360                1.00000    
       1361                1.00000    
       1362                1.00000    
       1363                1.00000    
       1364                1.00000    
       1365                1.00000    
       1366                1.00000    
       1367                1.00000    
       1368                1.00000    
       1369                1.00000    
       1370                1.00000    
       1371                1.00000    
       1372                1.00000    
       1373                1.00000    
       1374                1.00000    
       1375                1.00000    
       1376                1.00000    
       1377                1.00000    
       1378                1.00000    
       1379                1.00000    
       1380                1.00000    
       1381                1.00000    
       1382                1.00000    
       1383                1.00000    
       1384                1.00000    
       1385                1.00000    
       1386                1.00000    
       1387                1.00000    
       1388                1.00000    
       1389                1.00000    
       1390                1.00000    
       1391                1.00000    
       1392                1.00000    
       1393                1.00000    
       1394                1.00000    
       1395                1.00000    
       1396                1.00000    
       1397                1.00000    
       1398                1.00000    
       1399                1.00000    
       1400                1.00000    
       1401                1.00000    
       1402                1.00000    
       1403                1.00000    
       1404                1.00000    
       1405                1.00000    
       1406                1.00000    
       1407                1.00000    
       1408                1.00000    
       1409                1.00000    
       1410                1.00000    
       1411                1.00000    
       1412                1.00000    
       1413                1.00000    
       1414                1.00000    
       1415                1.00000    
       1416                1.00000    
       1417                1.00000    
       1418                1.00000    
       1419                1.00000    
       1420                1.00000    
       1421                1.00000    
       1422                1.00000    
       1423                1.00000    
       1424                1.00000    
       1425                1.00000    
       1426                1.00000    
       1427                1.00000    
       1428                1.00000    
       1429                1.00000    
       1430                1.00000    
       1431                1.00000    
       1432                1.00000    
       1433                1.00000    
       1434                1.00000    
       1435                1.00000    
       1436                1.00000    
       1437                1.00000    
       1438                1.00000    
       1439                1.00000    
       1440                1.00000    
       1441                1.00000    
       1442                1.00000    
       1443                1.00000    
       1444                1.00000    
       1445                1.00000    
       1446                1.00000    
       1447                1.00000    
       1448                1.00000    
       1449                1.00000    
       1450                1.00000    
       1451                1.00000    
       1452                1.00000    
       1453                1.00000    
       1454                1.00000    
       1455                1.00000    
       1456                1.00000    
       1457                1.00000    
       1458                1.00000    
       1459                1.00000    
       1460                1.00000    
       1461                1.00000    
       1462                1.00000    
       1463                1.00000    
       1464                1.00000    
       1465                1.00000    
       1466                1.00000    
       1467                1.00000    
       1468                1.00000    
       1469                1.00000    
       1470                1.00000    
       1471                1.00000    
       1472                1.00000    
       1473                1.00000    
       1474                1.00000    
       1475                1.00000    
       1476                1.00000    
       1477                1.00000    
       1478                1.00000    
       1479                1.00000    
       1480                1.00000    
       1481                1.00000    
       1482                1.00000    
       1483                1.00000    
       1484                1.00000    
       1485                1.00000    
       1486                1.00000    
       1487                1.00000    
       1488                1.00000    
       1489                1.00000    
       1490                1.00000    
       1491                1.00000    
       1492                1.00000    
       1493                1.00000    
       1494                1.00000    
       1495                1.00000    
       1496                1.00000    
       1497                1.00000    
       1498                1.00000    
       1499                1.00000    
       1500                1.00000    
       1501                1.00000    
       1502                1.00000    
       1503                1.00000    
       1504                1.00000    
       1505                1.00000    
       1506                1.00000    
       1507                1.00000    
       1508                1.00000    
       1509                1.00000    
       1510                1.00000    
       1511                1.00000    
       1512                1.00000    
       1513                1.00000    
       1514                1.00000    
       1515                1.00000    
       1516                1.00000    
       1517                1.00000    
       1518                1.00000    
       1519                1.00000    
       1520                1.00000    
       1521                1.00000    
       1522                1.00000    
       1523                1.00000    
       1524                1.00000    
       1525                1.00000    
       1526                1.00000    
       1527                1.00000    
       1528                1.00000    
       1529                1.00000    
       1530                1.00000    
       1531                1.00000    
       1532                1.00000    
       1533                1.00000    
       1534                1.00000    
       1535                1.00000    
       1536                1.00000    
       1537                1.00000    
       1538                1.00000    
       1539                1.00000    
       1540                1.00000    
       1541                1.00000    
       1542                1.00000    
       1543                1.00000    
       1544                1.00000    
       1545                1.00000    
       1546                1.00000    
       1547                1.00000    
       1548                1.00000    
       1549                1.00000    
       1550                1.00000    
       1551                1.00000    
       1552                1.00000    
       1553                1.00000    
       1554                1.00000    
       1555                1.00000    
       1556                1.00000    
       1557                1.00000    
       1558                1.00000    
       1559                1.00000    
       1560                1.00000    
       1561                1.00000    
       1562                1.00000    
       1563                1.00000    
       1564                1.00000    
       1565                1.00000    
       1566                1.00000    
       1567                1.00000    
       1568                1.00000    
       1569                1.00000    
       1570                1.00000    
       1571                1.00000    
       1572                1.00000    
       1573                1.00000    
       1574                1.00000    
       1575                1.00000    
       1576                1.00000    
       1577                1.00000    
       1578                1.00000    
       1579                1.00000    
       1580                1.00000    
       1581                1.00000    
       1582                1.00000    
       1583                1.00000    
       1584                1.00000    
       1585                1.00000    
       1586                1.00000    
       1587                1.00000    
       1588                1.00000    
       1589                1.00000    
       1590                1.00000    
       1591                1.00000    
       1592                1.00000    
       1593                1.00000    
       1594                1.00000    
       1595                1.00000    
       1596                1.00000    
       1597                1.00000    
       1598                1.00000    
       1599                1.00000    
       1600                1.00000    
       1601                1.00000    
       1602                1.00000    
       1603                1.00000    
       1604                1.00000    
       1605                1.00000    
       1606                1.00000    
       1607                1.00000    
       1608                1.00000    
       1609                1.00000    
       1610                1.00000    
       1611                1.00000    
       1612                1.00000    
       1613                1.00000    
       1614                1.00000    
       1615                1.00000    
       1616                1.00000    
       1617                1.00000    
       1618                1.00000    
       1619                1.00000    
       1620                1.00000    
       1621                1.00000    
       1622                1.00000    
       1623                1.00000    
       1624                1.00000    
       1625                1.00000    
       1626                1.00000    
       1627                1.00000    
       1628                1.00000    
       1629                1.00000    
       1630                1.00000    
       1631                1.00000    
       1632                1.00000    
       1633                1.00000    
       1634                1.00000    
       1635                1.00000    
       1636                1.00000    
       1637                1.00000    
       1638                1.00000    
       1639                1.00000    
       1640                1.00000    
       1641                1.00000    
       1642                1.00000    
       1643                1.00000    
       1644                1.00000    
       1645                1.00000    
       1646                1.00000    
       1647                1.00000    
       1648                1.00000    
       1649                1.00000    
       1650                1.00000    
       1651                1.00000    
       1652                1.00000    
       1653                1.00000    
       1654                1.00000    
       1655                1.00000    
       1656                1.00000    
       1657                1.00000    
       1658                1.00000    
       1659                1.00000    
       1660                1.00000    
       1661                1.00000    
       1662                1.00000    
       1663                1.00000    
       1664                1.00000    
       1665                1.00000    
       1666                1.00000    
       1667                1.00000    
       1668                1.00000    
       1669                1.00000    
       1670                1.00000    
       1671                1.00000    
       1672                1.00000    
       1673                1.00000    
       1674                1.00000    
       1675                1.00000    
       1676                1.00000    
       1677                1.00000    
       1678                1.00000    
       1679                1.00000    
       1680                1.00000    
       1681                1.00000    
       1682                1.00000    
       1683                1.00000    
       1684                1.00000    
       1685                1.00000    
       1686                1.00000    
       1687                1.00000    
       1688                1.00000    
       1689                1.00000    
       1690                1.00000    
       1691                1.00000    
       1692                1.00000    
       1693                1.00000    
       1694                1.00000    
       1695                1.00000    
       1696                1.00000    
       1697                1.00000    
       1698                1.00000    
       1699                1.00000    
       1700                1.00000    
       1701                1.00000    
       1702                1.00000    
       1703                1.00000    
       1704                1.00000    
       1705                1.00000    
       1706                1.00000    
       1707                1.00000    
       1708                1.00000    
       1709                1.00000    
       1710                1.00000    
       1711                1.00000    
       1712                1.00000    
       1713                1.00000    
       1714                1.00000    
       1715                1.00000    
       1716                1.00000    
       1717                1.00000    
       1718                1.00000    
       1719                1.00000    
       1720                1.00000    
       1721                1.00000    
       1722                1.00000    
       1723                1.00000    
       1724                1.00000    
       1725                1.00000    
       1726                1.00000    
       1727                1.00000    
       1728                1.00000    
       1729                1.00000    
       1730                1.00000    
       1731                1.00000    
       1732                1.00000    
       1733                1.00000    
       1734                1.00000    
       1735                1.00000    
       1736                1.00000    
       1737                1.00000    
       1738                1.00000    
       1739                1.00000    
       1740                1.00000    
       1741                1.00000    
       1742                1.00000    
       1743                1.00000    
       1744                1.00000    
       1745                1.00000    
       1746                1.00000    
       1747                1.00000    
       1748                1.00000    
       1749                1.00000    
       1750                1.00000    
       1751                1.00000    
       1752                1.00000    
       1753                1.00000    
       1754                1.00000    
       1755                1.00000    
       1756                1.00000    
       1757                1.00000    
       1758                1.00000    
       1759                1.00000    
       1760                1.00000    
       1761                1.00000    
       1762                1.00000    
       1763                1.00000    
       1764                1.00000    
       1765                1.00000    
       1766                1.00000    
       1767                1.00000    
       1768                1.00000    
       1769                1.00000    
       1770                1.00000    
       1771                1.00000    
       1772                1.00000    
       1773                1.00000    
       1774                1.00000    
       1775                1.00000    
       1776                1.00000    
       1777                1.00000    
       1778                1.00000    
       1779                1.00000    
       1780                1.00000    
       1781                1.00000    
       1782                1.00000    
       1783                1.00000    
       1784                1.00000    
       1785                1.00000    
       1786                1.00000    
       1787                1.00000    
       1788                1.00000    
       1789                1.00000    
       1790                1.00000    
       1791                1.00000    
       1792                1.00000    
       1793                1.00000    
       1794                1.00000    
       1795                1.00000    
       1796                1.00000    
       1797                1.00000    
       1798                1.00000    
       1799                1.00000    
       1800                1.00000    
       1801                1.00000    
       1802                1.00000    
       1803                1.00000    
       1804                1.00000    
       1805                1.00000    
       1806                1.00000    
       1807                1.00000    
       1808                1.00000    
       1809                1.00000    
       1810                1.00000    
       1811                1.00000    
       1812                1.00000    
       1813                1.00000    
       1814                1.00000    
       1815                1.00000    
       1816                1.00000    
       1817                1.00000    
       1818                1.00000    
       1819                1.00000    
       1820                1.00000    
       1821                1.00000    
       1822                1.00000    
       1823                1.00000    
       1824                1.00000    
       1825                1.00000    
       1826                1.00000    
       1827                1.00000    
       1828                1.00000    
       1829                1.00000    
       1830                1.00000    
       1831                1.00000    
       1832                1.00000    
       1833                1.00000    
       1834                1.00000    
       1835                1.00000    
       1836                1.00000    
       1837                1.00000    
       1838                1.00000    
       1839                1.00000    
       1840                1.00000    
       1841                1.00000    
       1842                1.00000    
       1843                1.00000    
       1844                1.00000    
       1845                1.00000    
       1846                1.00000    
       1847                1.00000    
       1848                1.00000    
       1849                1.00000    
       1850                1.00000    
       1851                1.00000    
       1852                1.00000    
       1853                1.00000    
       1854                1.00000    
       1855                1.00000    
       1856                1.00000    
       1857                1.00000    
       1858                1.00000    
       1859                1.00000    
       1860                1.00000    
       1861                1.00000    
       1862                1.00000    
       1863                1.00000    
       1864                1.00000    
       1865                1.00000    
       1866                1.00000    
       1867                1.00000    
       1868                1.00000    
       1869                1.00000    
       1870                1.00000    
       1871                1.00000    
       1872                1.00000    
       1873                1.00000    
       1874                1.00000    
       1875                1.00000    
       1876                1.00000    
       1877                1.00000    
       1878                1.00000    
       1879                1.00000    
       1880                1.00000    
       1881                1.00000    
       1882                1.00000    
       1883                1.00000    
       1884                1.00000    
       1885                1.00000    
       1886                1.00000    
       1887                1.00000    
       1888                1.00000    
       1889                1.00000    
       1890                1.00000    
       1891                1.00000    
       1892                1.00000    
       1893                1.00000    
       1894                1.00000    
       1895                1.00000    
       1896                1.00000    
       1897                1.00000    
       1898                1.00000    
       1899                1.00000    
       1900                1.00000    
       1901                1.00000    
       1902                1.00000    
       1903                1.00000    
       1904                1.00000    
       1905                1.00000    
       1906                1.00000    
       1907                1.00000    
       1908                1.00000    
       1909                1.00000    
       1910                1.00000    
       1911                1.00000    
       1912                1.00000    
       1913                1.00000    
       1914                1.00000    
       1915                1.00000    
       1916                1.00000    
       1917                1.00000    
       1918                1.00000    
       1919                1.00000    
       1920                1.00000    
       1921                1.00000    
       1922                1.00000    
       1923                1.00000    
       1924                1.00000    
       1925                1.00000    
       1926                1.00000    
       1927                1.00000    
       1928                1.00000    
       1929                1.00000    
       1930                1.00000    
       1931                1.00000    
       1932                1.00000    
       1933                1.00000    
       1934                1.00000    
       1935                1.00000    
       1936                1.00000    
       1937                1.00000    
       1938                1.00000    
       1939                1.00000    
       1940                1.00000    
       1941                1.00000    
       1942                1.00000    
       1943                1.00000    
       1944                1.00000    
       1945                1.00000    
       1946                1.00000    
       1947                1.00000    
       1948                1.00000    
       1949                1.00000    
       1950                1.00000    
       1951                1.00000    
       1952                1.00000    
       1953                1.00000    
       1954                1.00000    
       1955                1.00000    
       1956                1.00000    
       1957                1.00000    
       1958                1.00000    
       1959                1.00000    
       1960                1.00000    
       1961                1.00000    
       1962                1.00000    
       1963                1.00000    
       1964                1.00000    
       1965                1.00000    
       1966                1.00000    
       1967                1.00000    
       1968                1.00000    
       1969                1.00000    
       1970                1.00000    
       1971                1.00000    
       1972                1.00000    
       1973                1.00000    
       1974                1.00000    
       1975                1.00000    
       1976                1.00000    
       1977                1.00000    
       1978                1.00000    
       1979                1.00000    
       1980                1.00000    
       1981                1.00000    
       1982                1.00000    
       1983                1.00000    
       1984                1.00000    
       1985                1.00000    
       1986                1.00000    
       1987                1.00000    
       1988                1.00000    
       1989                1.00000    
       1990                1.00000    
       1991                1.00000    
       1992                1.00000    
       1993                1.00000    
       1994                1.00000    
       1995                1.00000    
       1996                1.00000    
       1997                1.00000    
       1998                1.00000    
       1999                1.00000    
       2000                1.00000    
       2001                1.00000    
       2002                1.00000    
       2003                1.00000    
       2004                1.00000    
       2005                1.00000    
       2006                1.00000    
       2007                1.00000    
       2008                1.00000    
       2009                1.00000    
       2010                1.00000    
       2011                1.00000    
       2012                1.00000    
       2013                1.00000    
       2014                1.00000    
       2015                1.00000    
       2016                1.00000    
       2017                1.00000    
       2018                1.00000    
       2019                1.00000    
       2020                1.00000    
       2021                1.00000    
       2022                1.00000    
       2023                1.00000    
       2024                1.00000    
       2025                1.00000    
       2026                1.00000    
       2027                1.00000    
       2028                1.00000    
       2029                1.00000    
       2030                1.00000    
       2031                1.00000    
       2032                1.00000    
       2033                1.00000    
       2034                1.00000    
       2035                1.00000    
       2036                1.00000    
       2037                1.00000    
       2038                1.00000    
       2039                1.00000    
       2040                1.00000    
       2041                1.00000    
       2042                1.00000    
       2043                1.00000    
       2044                1.00000    
       2045                1.00000    
       2046                1.00000    
       2047                1.00000    
       2048                1.00000    
       2049                1.00000    
       2050                1.00000    
       2051                1.00000    
       2052                1.00000    
       2053                1.00000    
       2054                1.00000    
       2055                1.00000    
       2056                1.00000    
       2057                1.00000    
       2058                1.00000    
       2059                1.00000    
       2060                1.00000    
       2061                1.00000    
       2062                1.00000    
       2063                1.00000    
       2064                1.00000    
       2065                1.00000    
       2066                1.00000    
       2067                1.00000    
       2068                1.00000    
       2069                1.00000    
       2070                1.00000    
       2071                1.00000    
       2072                1.00000    
       2073                1.00000    
       2074                1.00000    
       2075                1.00000    
       2076                1.00000    
       2077                1.00000    
       2078                1.00000    
       2079                1.00000    
       2080                1.00000    
       2081                1.00000    
       2082                1.00000    
       2083                1.00000    
       2084                1.00000    
       2085                1.00000    
       2086                1.00000    
       2087                1.00000    
       2088                1.00000    
       2089                1.00000    
       2090                1.00000    
       2091                1.00000    
       2092                1.00000    
       2093                1.00000    
       2094                1.00000    
       2095                1.00000    
       2096                1.00000    
       2097                1.00000    
       2098                1.00000    
       2099                1.00000    
       2100                1.00000    
       2101                1.00000    
       2102                1.00000    
       2103                1.00000    
       2104                1.00000    
       2105                1.00000    
       2106                1.00000    
       2107                1.00000    
       2108                1.00000    
       2109                1.00000    
       2110                1.00000    
       2111                1.00000    
       2112                1.00000    
       2113                1.00000    
       2114                1.00000    
       2115                1.00000    
       2116                1.00000    
       2117                1.00000    
       2118                1.00000    
       2119                1.00000    
       2120                1.00000    
       2121                1.00000    
       2122                1.00000    
       2123                1.00000    
       2124                1.00000    
       2125                1.00000    
       2126                1.00000    
       2127                1.00000    
       2128                1.00000    
       2129                1.00000    
       2130                1.00000    
       2131                1.00000    
       2132                1.00000    
       2133                1.00000    
       2134                1.00000    
       2135                1.00000    
       2136                1.00000    
       2137                1.00000    
       2138                1.00000    
       2139                1.00000    
       2140                1.00000    
       2141                1.00000    
       2142                1.00000    
       2143                1.00000    
       2144                1.00000    
       2145                1.00000    
       2146                1.00000    
       2147                1.00000    
       2148                1.00000    
       2149                1.00000    
       2150                1.00000    
       2151                1.00000    
       2152                1.00000    
       2153                1.00000    
       2154                1.00000    
       2155                1.00000    
       2156                1.00000    
       2157                1.00000    
       2158                1.00000    
       2159                1.00000    
       2160                1.00000    
       2161                1.00000    
       2162                1.00000    
       2163                1.00000    
       2164                1.00000    
       2165                1.00000    
       2166                1.00000    
       2167                1.00000    
       2168                1.00000    
       2169                1.00000    
       2170                1.00000    
       2171                1.00000    
       2172                1.00000    
       2173                1.00000    
       2174                1.00000    
       2175                1.00000    
       2176                1.00000    
       2177                1.00000    
       2178                1.00000    
       2179                1.00000    
       2180                1.00000    
       2181                1.00000    
       2182                1.00000    
       2183                1.00000    
       2184                1.00000    
       2185                1.00000    
       2186                1.00000    
       2187                1.00000    
       2188                1.00000    
       2189                1.00000    
       2190                1.00000    
       2191                1.00000    
       2192                1.00000    
       2193                1.00000    
       2194                1.00000    
       2195                1.00000    
       2196                1.00000    
       2197                1.00000    
       2198                1.00000    
       2199                1.00000    
       2200                1.00000    
       2201                1.00000    
       2202                1.00000    
       2203                1.00000    
       2204                1.00000    
       2205                1.00000    
       2206                1.00000    
       2207                1.00000    
       2208                1.00000    
       2209                1.00000    
       2210                1.00000    
       2211                1.00000    
       2212                1.00000    
       2213                1.00000    
       2214                1.00000    
       2215                1.00000    
       2216                1.00000    
       2217                1.00000    
       2218                1.00000    
       2219                1.00000    
       2220                1.00000    
       2221                1.00000    
       2222                1.00000    
       2223                1.00000    
       2224                1.00000    
       2225                1.00000    
       2226                1.00000    
       2227                1.00000    
       2228                1.00000    
       2229                1.00000    
       2230                1.00000    
       2231                1.00000    
       2232                1.00000    
       2233                1.00000    
       2234                1.00000    
       2235                1.00000    
       2236                1.00000    
       2237                1.00000    
       2238                1.00000    
       2239                1.00000    
       2240                1.00000    
       2241                1.00000    
       2242                1.00000    
       2243                1.00000    
       2244                1.00000    
       2245                1.00000    
       2246                1.00000    
       2247                1.00000    
       2248                1.00000    
       2249                1.00000    
       2250                1.00000    
       2251                1.00000    
       2252                1.00000    
       2253                1.00000    
       2254                1.00000    
       2255                1.00000    
       2256                1.00000    
       2257                1.00000    
       2258                1.00000    
       2259                1.00000    
       2260                1.00000    
       2261                1.00000    
       2262                1.00000    
       2263                1.00000    
       2264                1.00000    
       2265                1.00000    
       2266                1.00000    
       2267                1.00000    
       2268                1.00000    
       2269                1.00000    
       2270                1.00000    
       2271                1.00000    
       2272                1.00000    
       2273                1.00000    
       2274                1.00000    
       2275                1.00000    
       2276                1.00000    
       2277                1.00000    
       2278                1.00000    
       2279                1.00000    
       2280                1.00000    
       2281                1.00000    
       2282                1.00000    
       2283                1.00000    
       2284                1.00000    
       2285                1.00000    
       2286                1.00000    
       2287                1.00000    
       2288                1.00000    
       2289                1.00000    
       2290                1.00000    
       2291                1.00000    
       2292                1.00000    
       2293                1.00000    
       2294                1.00000    
       2295                1.00000    
       2296                1.00000    
       2297                1.00000    
       2298                1.00000    
       2299                1.00000    
       2300                1.00000    
       2301                1.00000    
       2302                1.00000    
       2303                1.00000    
       2304                1.00000    
       2305                1.00000    
       2306                1.00000    
       2307                1.00000    
       2308                1.00000    
       2309                1.00000    
       2310                1.00000    
       2311                1.00000    
       2312                1.00000    
       2313                1.00000    
       2314                1.00000    
       2315                1.00000    
       2316                1.00000    
       2317                1.00000    
       2318                1.00000    
       2319                1.00000    
       2320                1.00000    
       2321                1.00000    
       2322                1.00000    
       2323                1.00000    
       2324                1.00000    
       2325                1.00000    
       2326                1.00000    
       2327                1.00000    
       2328                1.00000    
       2329                1.00000    
       2330                1.00000    
       2331                1.00000    
       2332                1.00000    
       2333                1.00000    
       2334                1.00000    
       2335                1.00000    
       2336                1.00000    
       2337                1.00000    
       2338                1.00000    
       2339                1.00000    
       2340                1.00000    
       2341                1.00000    
       2342                1.00000    
       2343                1.00000    
       2344                1.00000    
       2345                1.00000    
       2346                1.00000    
       2347                1.00000    
       2348                1.00000    
       2349                1.00000    
       2350                1.00000    
       2351                1.00000    
       2352                1.00000    
       2353                1.00000    
       2354                1.00000    
       2355                1.00000    
       2356                1.00000    
       2357                1.00000    
       2358                1.00000    
       2359                1.00000    
       2360                1.00000    
       2361                1.00000    
       2362                1.00000    
       2363                1.00000    
       2364                1.00000    
       2365                1.00000    
       2366                1.00000    
       2367                1.00000    
       2368                1.00000    
       2369                1.00000    
       2370                1.00000    
       2371                1.00000    
       2372                1.00000    
       2373                1.00000    
       2374                1.00000    
       2375                1.00000    
       2376                1.00000    
       2377                1.00000    
       2378                1.00000    
       2379                1.00000    
       2380                1.00000    
       2381                1.00000    
       2382                1.00000    
       2383                1.00000    
       2384                1.00000    
       2385                1.00000    
       2386                1.00000    
       2387                1.00000    
       2388                1.00000    
       2389                1.00000    
       2390                1.00000    
       2391                1.00000    
       2392                1.00000    
       2393                1.00000    
       2394                1.00000    
       2395                1.00000    
       2396                1.00000    
       2397                1.00000    
       2398                1.00000    
       2399                1.00000    
       2400                1.00000    
       2401                1.00000    
       2402                1.00000    
       2403                1.00000    
       2404                1.00000    
       2405                1.00000    
       2406                1.00000    
       2407                1.00000    
       2408                1.00000    
       2409                1.00000    
       2410                1.00000    
       2411                1.00000    
       2412                1.00000    
       2413                1.00000    
       2414                1.00000    
       2415                1.00000    
       2416                1.00000    
       2417                1.00000    
       2418                1.00000    
       2419                1.00000    
       2420                1.00000    
       2421                1.00000    
       2422                1.00000    
       2423                1.00000    
       2424                1.00000    
       2425                1.00000    
       2426                1.00000    
       2427                1.00000    
       2428                1.00000    
       2429                1.00000    
       2430                1.00000    
       2431                1.00000    
       2432                1.00000    
       2433                1.00000    
       2434                1.00000    
       2435                1.00000    
       2436                1.00000    
       2437                1.00000    
       2438                1.00000    
       2439                1.00000    
       2440                1.00000    
       2441                1.00000    
       2442                1.00000    
       2443                1.00000    
       2444                1.00000    
       2445                1.00000    
       2446                1.00000    
       2447                1.00000    
       2448                1.00000    
       2449                1.00000    
       2450                1.00000    
       2451                1.00000    
       2452                1.00000    
       2453                1.00000    
       2454                1.00000    
       2455                1.00000    
       2456                1.00000    
       2457                1.00000    
       2458                1.00000    
       2459                1.00000    
       2460                1.00000    
       2461                1.00000    
       2462                1.00000    
       2463                1.00000    
       2464                1.00000    
       2465                1.00000    
       2466                1.00000    
       2467                1.00000    
       2468                1.00000    
       2469                1.00000    
       2470                1.00000    
       2471                1.00000    
       2472                1.00000    
       2473                1.00000    
       2474                1.00000    
       2475                1.00000    
       2476                1.00000    
       2477                1.00000    
       2478                1.00000    
       2479                1.00000    
       2480                1.00000    
       2481                1.00000    
       2482                1.00000    
       2483                1.00000    
       2484                1.00000    
       2485                1.00000    
       2486                1.00000    
       2487                1.00000    
       2488                1.00000    
       2489                1.00000    
       2490                1.00000    
       2491                1.00000    
       2492                1.00000    
       2493                1.00000    
       2494                1.00000    
       2495                1.00000    
       2496                1.00000    
       2497                1.00000    
       2498                1.00000    
       2499                1.00000    
       2500                1.00000    
       2501                1.00000    
       2502                1.00000    
       2503                1.00000    
       2504                1.00000    
       2505                1.00000    
       2506                1.00000    
       2507                1.00000    
       2508                1.00000    
       2509                1.00000    
       2510                1.00000    
       2511                1.00000    
       2512                1.00000    
       2513                1.00000    
       2514                1.00000    
       2515                1.00000    
       2516                1.00000    
       2517                1.00000    
       2518                1.00000    
       2519                1.00000    
       2520                1.00000    
       2521                1.00000    
       2522                1.00000    
       2523                1.00000    
       2524                1.00000    
       2525                1.00000    
       2526                1.00000    
       2527                1.00000    
       2528                1.00000    
       2529                1.00000    
       2530                1.00000    
       2531                1.00000    
       2532                1.00000    
       2533                1.00000    
       2534                1.00000    
       2535                1.00000    
       2536                1.00000    
       2537                1.00000    
       2538                1.00000    
       2539                1.00000    
       2540                1.00000    
       2541                1.00000    
       2542                1.00000    
       2543                1.00000    
       2544                1.00000    
       2545                1.00000    
       2546                1.00000    
       2547                1.00000    
       2548                1.00000    
       2549                1.00000    
       2550                1.00000    
       2551                1.00000    
       2552                1.00000    
       2553                1.00000    
       2554                1.00000    
       2555                1.00000    
       2556                1.00000    
       2557                1.00000    
       2558                1.00000    
       2559                1.00000    
       2560                1.00000    
       2561                1.00000    
       2562                1.00000    
       2563                1.00000    
       2564                1.00000    
       2565                1.00000    
       2566                1.00000    
       2567                1.00000    
       2568                1.00000    
       2569                1.00000    
       2570                1.00000    
       2571                1.00000    
       2572                1.00000    
       2573                1.00000    
       2574                1.00000    
       2575                1.00000    
       2576                1.00000    
       2577                1.00000    
       2578                1.00000    
       2579                1.00000    
       2580                1.00000    
       2581                1.00000    
       2582                1.00000    
       2583                1.00000    
       2584                1.00000    
       2585                1.00000    
       2586                1.00000    
       2587                1.00000    
       2588                1.00000    
       2589                1.00000    
       2590                1.00000    
       2591                1.00000    
       2592                1.00000    
       2593                1.00000    
       2594                1.00000    
       2595                1.00000    
       2596                1.00000    
       2597                1.00000    
       2598                1.00000    
       2599                1.00000    
       2600                1.00000    
       2601                1.00000    
       2602                1.00000    
       2603                1.00000    
       2604                1.00000    
       2605                1.00000    
       2606                1.00000    
       2607                1.00000    
       2608                1.00000    
       2609                1.00000    
       2610                1.00000    
       2611                1.00000    
       2612                1.00000    
       2613                1.00000    
       2614                1.00000    
       2615                1.00000    
       2616                1.00000    
       2617                1.00000    
       2618                1.00000    
       2619                1.00000    
       2620                1.00000    
       2621                1.00000    
       2622                1.00000    
       2623                1.00000    
       2624                1.00000    
       2625                1.00000    
       2626                1.00000    
       2627                1.00000    
       2628                1.00000    
       2629                1.00000    
       2630                1.00000    
       2631                1.00000    
       2632                1.00000    
       2633                1.00000    
       2634                1.00000    
       2635                1.00000    
       2636                1.00000    
       2637                1.00000    
       2638                1.00000    
       2639                1.00000    
       2640                1.00000    
       2641                1.00000    
       2642                1.00000    
       2643                1.00000    
       2644                1.00000    
       2645                1.00000    
       2646                1.00000    
       2647                1.00000    
       2648                1.00000    
       2649                1.00000    
       2650                1.00000    
       2651                1.00000    
       2652                1.00000    
       2653                1.00000    
       2654                1.00000    
       2655                1.00000    
       2656                1.00000    
       2657                1.00000    
       2658                1.00000    
       2659                1.00000    
       2660                1.00000    
       2661                1.00000    
       2662                1.00000    
       2663                1.00000    
       2664                1.00000    
       2665                1.00000    
       2666                1.00000    
       2667                1.00000    
       2668                1.00000    
       2669                1.00000    
       2670                1.00000    
       2671                1.00000    
       2672                1.00000    
       2673                1.00000    
       2674                1.00000    
       2675                1.00000    
       2676                1.00000    
       2677                1.00000    
       2678                1.00000    
       2679                1.00000    
       2680                1.00000    
       2681                1.00000    
       2682                1.00000    
       2683                1.00000    
       2684                1.00000    
       2685                1.00000    
       2686                1.00000    
       2687                1.00000    
       2688                1.00000    
       2689                1.00000    
       2690                1.00000    
       2691                1.00000    
       2692                1.00000    
       2693                1.00000    
       2694                1.00000    
       2695                1.00000    
       2696                1.00000    
       2697                1.00000    
       2698                1.00000    
       2699                1.00000    
       2700                1.00000    
       2701                1.00000    
       2702                1.00000    
       2703                1.00000    
       2704                1.00000    
       2705                1.00000    
       2706                1.00000    
       2707                1.00000    
       2708                1.00000    
       2709                1.00000    
       2710                1.00000    
       2711                1.00000    
       2712                1.00000    
       2713                1.00000    
       2714                1.00000    
       2715                1.00000    
       2716                1.00000    
       2717                1.00000    
       2718                1.00000    
       2719                1.00000    
       2720                1.00000    
       2721                1.00000    
       2722                1.00000    
       2723                1.00000    
       2724                1.00000    
       2725                1.00000    
       2726                1.00000    
       2727                1.00000    
       2728                1.00000    
       2729                1.00000    
       2730                1.00000    
       2731                1.00000    
       2732                1.00000    
       2733                1.00000    
       2734                1.00000    
       2735                1.00000    
       2736                1.00000    
       2737                1.00000    
       2738                1.00000    
       2739                1.00000    
       2740                1.00000    
       2741                1.00000    
       2742                1.00000    
       2743                1.00000    
       2744                1.00000    
       2745                1.00000    
       2746                1.00000    
       2747                1.00000    
       2748                1.00000    
       2749                1.00000    
       2750                1.00000    
       2751                1.00000    
       2752                1.00000    
       2753                1.00000    
       2754                1.00000    
       2755                1.00000    
       2756                1.00000    
       2757                1.00000    
       2758                1.00000    
       2759                1.00000    
       2760                1.00000    
       2761                1.00000    
       2762                1.00000    
       2763                1.00000    
       2764                1.00000    
       2765                1.00000    
       2766                1.00000    
       2767                1.00000    
       2768                1.00000    
       2769                1.00000    
       2770                1.00000    
       2771                1.00000    
       2772                1.00000    
       2773                1.00000    
       2774                1.00000    
       2775                1.00000    
       2776                1.00000    
       2777                1.00000    
       2778                1.00000    
       2779                1.00000    
       2780                1.00000    
       2781                1.00000    
       2782                1.00000    
       2783                1.00000    
       2784                1.00000    
       2785                1.00000    
       2786                1.00000    
       2787                1.00000    
       2788                1.00000    
       2789                1.00000    
       2790                1.00000    
       2791                1.00000    
       2792                1.00000    
       2793                1.00000    
       2794                1.00000    
       2795                1.00000    
       2796                1.00000    
       2797                1.00000    
       2798                1.00000    
       2799                1.00000    
       2800                1.00000    
       2801                1.00000    
       2802                1.00000    
       2803                1.00000    
       2804                1.00000    
       2805                1.00000    
       2806                1.00000    
       2807                1.00000    
       2808                1.00000    
       2809                1.00000    
       2810                1.00000    
       2811                1.00000    
       2812                1.00000    
       2813                1.00000    
       2814                1.00000    
       2815                1.00000    
       2816                1.00000    
       2817                1.00000    
       2818                1.00000    
       2819                1.00000    
       2820                1.00000    
       2821                1.00000    
       2822                1.00000    
       2823                1.00000    
       2824                1.00000    
       2825                1.00000    
       2826                1.00000    
       2827                1.00000    
       2828                1.00000    
       2829                1.00000    
       2830                1.00000    
       2831                1.00000    
       2832                1.00000    
       2833                1.00000    
       2834                1.00000    
       2835                1.00000    
       2836                1.00000    
       2837                1.00000    
       2838                1.00000    
       2839                1.00000    
       2840                1.00000    
       2841                1.00000    
       2842                1.00000    
       2843                1.00000    
       2844                1.00000    
       2845                1.00000    
       2846                1.00000    
       2847                1.00000    
       2848                1.00000    
       2849                1.00000    
       2850                1.00000    
       2851                1.00000    
       2852                1.00000    
       2853                1.00000    
       2854                1.00000    
       2855                1.00000    
       2856                1.00000    
       2857                1.00000    
       2858                1.00000    
       2859                1.00000    
       2860                1.00000    
       2861                1.00000    
       2862                1.00000    
       2863                1.00000    
       2864                1.00000    
       2865                1.00000    
       2866                1.00000    
       2867                1.00000    
       2868                1.00000    
       2869                1.00000    
       2870                1.00000    
       2871                1.00000    
       2872                1.00000    
       2873                1.00000    
       2874                1.00000    
       2875                1.00000    
       2876                1.00000    
       2877                1.00000    
       2878                1.00000    
       2879                1.00000    
       2880                1.00000    
       2881                1.00000    
       2882                1.00000    
       2883                1.00000    
       2884                1.00000    
       2885                1.00000    
       2886                1.00000    
       2887                1.00000    
       2888                1.00000    
       2889                1.00000    
       2890                1.00000    
       2891                1.00000    
       2892                1.00000    
       2893                1.00000    
       2894                1.00000    
       2895                1.00000    
       2896                1.00000    
       2897                1.00000    
       2898                1.00000    
       2899                1.00000    
       2900                1.00000    
       2901                1.00000    
       2902                1.00000    
       2903                1.00000    
       2904                1.00000    
       2905                1.00000    
       2906                1.00000    
       2907                1.00000    
       2908                1.00000    
       2909                1.00000    
       2910                1.00000    
       2911                1.00000    
       2912                1.00000    
       2913                1.00000    
       2914                1.00000    
       2915                1.00000    
       2916                1.00000    
       2917                1.00000    
       2918                1.00000    
       2919                1.00000    
       2920                1.00000    
       2921                1.00000    
       2922                1.00000    
       2923                1.00000    
       2924                1.00000    
       2925                1.00000    
       2926                1.00000    
       2927                1.00000    
       2928                1.00000    
       2929                1.00000    
       2930                1.00000    
       2931                1.00000    
       2932                1.00000    
       2933                1.00000    
       2934                1.00000    
       2935                1.00000    
       2936                1.00000    
       2937                1.00000    
       2938                1.00000    
       2939                1.00000    
       2940                1.00000    
       2941                1.00000    
       2942                1.00000    
       2943                1.00000    
       2944                1.00000    
       2945                1.00000    
       2946                1.00000    
       2947                1.00000    
       2948                1.00000    
       2949                1.00000    
       2950                1.00000    
       2951                1.00000    
       2952                1.00000    
       2953                1.00000    
       2954                1.00000    
       2955                1.00000    
       2956                1.00000    
       2957                1.00000    
       2958                1.00000    
       2959                1.00000    
       2960                1.00000    
       2961                1.00000    
       2962                1.00000    
       2963                1.00000    
       2964                1.00000    
       2965                1.00000    
       2966                1.00000    
       2967                1.00000    
       2968                1.00000    
       2969                1.00000    
       2970                1.00000    
       2971                1.00000    
       2972                1.00000    
       2973                1.00000    
       2974                1.00000    
       2975                1.00000    
       2976                1.00000    
       2977                1.00000    
       2978                1.00000    
       2979                1.00000    
       2980                1.00000    
       2981                1.00000    
       2982                1.00000    
       2983                1.00000    
       2984                1.00000    
       2985                1.00000    
       2986                1.00000    
       2987                1.00000    
       2988                1.00000    
       2989                1.00000    
       2990                1.00000    
       2991                1.00000    
       2992                1.00000    
       2993                1.00000    
       2994                1.00000    
       2995                1.00000    
       2996                1.00000    
       2997                1.00000    
       2998                1.00000    
       2999                1.00000    
       3000                1.00000    
       3001                1.00000    
       3002                1.00000    
       3003                1.00000    
       3004                1.00000    
       3005                1.00000    
       3006                1.00000    
       3007                1.00000    
       3008                1.00000    
       3009                1.00000    
       3010                1.00000    
       3011                1.00000    
       3012                1.00000    
       3013                1.00000    
       3014                1.00000    
       3015                1.00000    
       3016                1.00000    
       3017                1.00000    
       3018                1.00000    
       3019                1.00000    
       3020                1.00000    
       3021                1.00000    
       3022                1.00000    
       3023                1.00000    
       3024                1.00000    
       3025                1.00000    
       3026                1.00000    
       3027                1.00000    
       3028                1.00000    
       3029                1.00000    
       3030                1.00000    
       3031                1.00000    
       3032                1.00000    
       3033                1.00000    
       3034                1.00000    
       3035                1.00000    
       3036                1.00000    
       3037                1.00000    
       3038                1.00000    
       3039                1.00000    
       3040                1.00000    
       3041                1.00000    
       3042                1.00000    
       3043                1.00000    
       3044                1.00000    
       3045                1.00000    
       3046                1.00000    
       3047                1.00000    
       3048                1.00000    
       3049                1.00000    
       3050                1.00000    
       3051                1.00000    
       3052                1.00000    
       3053                1.00000    
       3054                1.00000    
       3055                1.00000    
       3056                1.00000    
       3057                1.00000    
       3058                1.00000    
       3059                1.00000    
       3060                1.00000    
       3061                1.00000    
       3062                1.00000    
       3063                1.00000    
       3064                1.00000    
       3065                1.00000    
       3066                1.00000    
       3067                1.00000    
       3068                1.00000    
       3069                1.00000    
       3070                1.00000    
       3071                1.00000    
       3072                1.00000    
       3073                1.00000    
       3074                1.00000    
       3075                1.00000    
       3076                1.00000    
       3077                1.00000    
       3078                1.00000    
       3079                1.00000    
       3080                1.00000    
       3081                1.00000    
       3082                1.00000    
       3083                1.00000    
       3084                1.00000    
       3085                1.00000    
       3086                1.00000    
       3087                1.00000    
       3088                1.00000    
       3089                1.00000    
       3090                1.00000    
       3091                1.00000    
       3092                1.00000    
       3093                1.00000    
       3094                1.00000    
       3095                1.00000    
       3096                1.00000    
       3097                1.00000    
       3098                1.00000    
       3099                1.00000    
       3100                1.00000    
       3101                1.00000    
       3102                1.00000    
       3103                1.00000    
       3104                1.00000    
       3105                1.00000    
       3106                1.00000    
       3107                1.00000    
       3108                1.00000    
       3109                1.00000    
       3110                1.00000    
       3111                1.00000    
       3112                1.00000    
       3113                1.00000    
       3114                1.00000    
       3115                1.00000    
       3116                1.00000    
       3117                1.00000    
       3118                1.00000    
       3119                1.00000    
       3120                1.00000    
       3121                1.00000    
       3122                1.00000    
       3123                1.00000    
       3124                1.00000    
       3125                1.00000    
       3126                1.00000    
       3127                1.00000    
       3128                1.00000    
       3129                1.00000    
       3130                1.00000    
       3131                1.00000    
       3132                1.00000    
       3133                1.00000    
       3134                1.00000    
       3135                1.00000    
       3136                1.00000    
       3137                1.00000    
       3138                1.00000    
       3139                1.00000    
       3140                1.00000    
       3141                1.00000    
       3142                1.00000    
       3143                1.00000    
       3144                1.00000    
       3145                1.00000    
       3146                1.00000    
       3147                1.00000    
       3148                1.00000    
       3149                1.00000    
       3150                1.00000    
       3151                1.00000    
       3152                1.00000    
       3153                1.00000    
       3154                1.00000    
       3155                1.00000    
       3156                1.00000    
       3157                1.00000    
       3158                1.00000    
       3159                1.00000    
       3160                1.00000    
       3161                1.00000    
       3162                1.00000    
       3163                1.00000    
       3164                1.00000    
       3165                1.00000    
       3166                1.00000    
       3167                1.00000    
       3168                1.00000    
       3169                1.00000    
       3170                1.00000    
       3171                1.00000    
       3172                1.00000    
       3173                1.00000    
       3174                1.00000    
       3175                1.00000    
       3176                1.00000    
       3177                1.00000    
       3178                1.00000    
       3179                1.00000    
       3180                1.00000    
       3181                1.00000    
       3182                1.00000    
       3183                1.00000    
       3184                1.00000    
       3185                1.00000    
       3186                1.00000    
       3187                1.00000    
       3188                1.00000    
       3189                1.00000    
       3190                1.00000    
       3191                1.00000    
       3192                1.00000    
       3193                1.00000    
       3194                1.00000    
       3195                1.00000    
       3196                1.00000    
       3197                1.00000    
       3198                1.00000    
       3199                1.00000    
       3200                1.00000    
       3201                1.00000    
       3202                1.00000    
       3203                1.00000    
       3204                1.00000    
       3205                1.00000    
       3206                1.00000    
       3207                1.00000    
       3208                1.00000    
       3209                1.00000    
       3210                1.00000    
       3211                1.00000    
       3212                1.00000    
       3213                1.00000    
       3214                1.00000    
       3215                1.00000    
       3216                1.00000    
       3217                1.00000    
       3218                1.00000    
       3219                1.00000    
       3220                1.00000    
       3221                1.00000    
       3222                1.00000    
       3223                1.00000    
       3224                1.00000    
       3225                1.00000    
       3226                1.00000    
       3227                1.00000    
       3228                1.00000    
       3229                1.00000    
       3230                1.00000    
       3231                1.00000    
       3232                1.00000    
       3233                1.00000    
       3234                1.00000    
       3235                1.00000    
       3236                1.00000    
       3237                1.00000    
       3238                1.00000    
       3239                1.00000    
       3240                1.00000    
       3241                1.00000    
       3242                1.00000    
       3243                1.00000    
       3244                1.00000    
       3245                1.00000    
       3246                1.00000    
       3247                1.00000    
       3248                1.00000    
       3249                1.00000    
       3250                1.00000    
       3251                1.00000    
       3252                1.00000    
       3253                1.00000    
       3254                1.00000    
       3255                1.00000    
       3256                1.00000    
       3257                1.00000    
       3258                1.00000    
       3259                1.00000    
       3260                1.00000    
       3261                1.00000    
       3262                1.00000    
       3263                1.00000    
       3264                1.00000    
       3265                1.00000    
       3266                1.00000    
       3267                1.00000    
       3268                1.00000    
       3269                1.00000    
       3270                1.00000    
       3271                1.00000    
       3272                1.00000    
       3273                1.00000    
       3274                1.00000    
       3275                1.00000    
       3276                1.00000    
       3277                1.00000    
       3278                1.00000    
       3279                1.00000    
       3280                1.00000    
       3281                1.00000    
       3282                1.00000    
       3283                1.00000    
       3284                1.00000    
       3285                1.00000    
       3286                1.00000    
       3287                1.00000    
       3288                1.00000    
       3289                1.00000    
       3290                1.00000    
       3291                1.00000    
       3292                1.00000    
       3293                1.00000    
       3294                1.00000    
       3295                1.00000    
       3296                1.00000    
       3297                1.00000    
       3298                1.00000    
       3299                1.00000    
       3300                1.00000    
       3301                1.00000    
       3302                1.00000    
       3303                1.00000    
       3304                1.00000    
       3305                1.00000    
       3306                1.00000    
       3307                1.00000    
       3308                1.00000    
       3309                1.00000    
       3310                1.00000    
       3311                1.00000    
       3312                1.00000    
       3313                1.00000    
       3314                1.00000    
       3315                1.00000    
       3316                1.00000    
       3317                1.00000    
       3318                1.00000    
       3319                1.00000    
       3320                1.00000    
       3321                1.00000    
       3322                1.00000    
       3323                1.00000    
       3324                1.00000    
       3325                1.00000    
       3326                1.00000    
       3327                1.00000    
       3328                1.00000    
       3329                1.00000    
       3330                1.00000    
       3331                1.00000    
       3332                1.00000    
       3333                1.00000    
       3334                1.00000    
       3335                1.00000    
       3336                1.00000    
       3337                1.00000    
       3338                1.00000    
       3339                1.00000    
       3340                1.00000    
       3341                1.00000    
       3342                1.00000    
       3343                1.00000    
       3344                1.00000    
       3345                1.00000    
       3346                1.00000    
       3347                1.00000    
       3348                1.00000    
       3349                1.00000    
       3350                1.00000    
       3351                1.00000    
       3352                1.00000    
       3353                1.00000    
       3354                1.00000    
       3355                1.00000    
       3356                1.00000    
       3357                1.00000    
       3358                1.00000    
       3359                1.00000    
       3360                1.00000    
       3361                1.00000    
       3362                1.00000    
       3363                1.00000    
       3364                1.00000    
       3365                1.00000    
       3366                1.00000    
       3367                1.00000    
       3368                1.00000    
       3369                1.00000    
       3370                1.00000    
       3371                1.00000    
       3372                1.00000    
       3373                1.00000    
       3374                1.00000    
       3375                1.00000    
       3376                1.00000    
       3377                1.00000    
       3378                1.00000    
       3379                1.00000    
       3380                1.00000    
       3381                1.00000    
       3382                1.00000    
       3383                1.00000    
       3384                1.00000    
       3385                1.00000    
       3386                1.00000    
       3387                1.00000    
       3388                1.00000    
       3389                1.00000    
       3390                1.00000    
       3391                1.00000    
       3392                1.00000    
       3393                1.00000    
       3394                1.00000    
       3395                1.00000    
       3396                1.00000    
       3397                1.00000    
       3398                1.00000    
       3399                1.00000    
       3400                1.00000    
       3401                1.00000    
       3402                1.00000    
       3403                1.00000    
       3404                1.00000    
       3405                1.00000    
       3406                1.00000    
       3407                1.00000    
       3408                1.00000    
       3409                1.00000    
       3410                1.00000    
       3411                1.00000    
       3412                1.00000    
       3413                1.00000    
       3414                1.00000    
       3415                1.00000    
       3416                1.00000    
       3417                1.00000    
       3418                1.00000    
       3419                1.00000    
       3420                1.00000    
       3421                1.00000    
       3422                1.00000    
       3423                1.00000    
       3424                1.00000    
       3425                1.00000    
       3426                1.00000    
       3427                1.00000    
       3428                1.00000    
       3429                1.00000    
       3430                1.00000    
       3431                1.00000    
       3432                1.00000    
       3433                1.00000    
       3434                1.00000    
       3435                1.00000    
       3436                1.00000    
       3437                1.00000    
       3438                1.00000    
       3439                1.00000    
       3440                1.00000    
       3441                1.00000    
       3442                1.00000    
       3443                1.00000    
       3444                1.00000    
       3445                1.00000    
       3446                1.00000    
       3447                1.00000    
       3448                1.00000    
       3449                1.00000    
       3450                1.00000    
       3451                1.00000    
       3452                1.00000    
       3453                1.00000    
       3454                1.00000    
       3455                1.00000    
       3456                1.00000    
       3457                1.00000    
       3458                1.00000    
       3459                1.00000    
       3460                1.00000    
       3461                1.00000    
       3462                1.00000    
       3463                1.00000    
       3464                1.00000    
       3465                1.00000    
       3466                1.00000    
       3467                1.00000    
       3468                1.00000    
       3469                1.00000    
       3470                1.00000    
       3471                1.00000    
       3472                1.00000    
       3473                1.00000    
       3474                1.00000    
       3475                1.00000    
       3476                1.00000    
       3477                1.00000    
       3478                1.00000    
       3479                1.00000    
       3480                1.00000    
       3481                1.00000    
       3482                1.00000    
       3483                1.00000    
       3484                1.00000    
       3485                1.00000    
       3486                1.00000    
       3487                1.00000    
       3488                1.00000    
       3489                1.00000    
       3490                1.00000    
       3491                1.00000    
       3492                1.00000    
       3493                1.00000    
       3494                1.00000    
       3495                1.00000    
       3496                1.00000    
       3497                1.00000    
       3498                1.00000    
       3499                1.00000    
       3500                1.00000    
       3501                1.00000    
       3502                1.00000    
       3503                1.00000    
       3504                1.00000    
       3505                1.00000    
       3506                1.00000    
       3507                1.00000    
       3508                1.00000    
       3509                1.00000    
       3510                1.00000    
       3511                1.00000    
       3512                1.00000    
       3513                1.00000    
       3514                1.00000    
       3515                1.00000    
       3516                1.00000    
       3517                1.00000    
       3518                1.00000    
       3519                1.00000    
       3520                1.00000    
       3521                1.00000    
       3522                1.00000    
       3523                1.00000    
       3524                1.00000    
       3525                1.00000    
       3526                1.00000    
       3527                1.00000    
       3528                1.00000    
       3529                1.00000    
       3530                1.00000    
       3531                1.00000    
       3532                1.00000    
       3533                1.00000    
       3534                1.00000    
       3535                1.00000    
       3536                1.00000    
       3537                1.00000    
       3538                1.00000    
       3539                1.00000    
       3540                1.00000    
       3541                1.00000    
       3542                1.00000    
       3543                1.00000    
       3544                1.00000    
       3545                1.00000    
       3546                1.00000    
       3547                1.00000    
       3548                1.00000    
       3549                1.00000    
       3550                1.00000    
       3551                1.00000    
       3552                1.00000    
       3553                1.00000    
       3554                1.00000    
       3555                1.00000    
       3556                1.00000    
       3557                1.00000    
       3558                1.00000    
       3559                1.00000    
       3560                1.00000    
       3561                1.00000    
       3562                1.00000    
       3563                1.00000    
       3564                1.00000    
       3565                1.00000    
       3566                1.00000    
       3567                1.00000    
       3568                1.00000    
       3569                1.00000    
       3570                1.00000    
       3571                1.00000    
       3572                1.00000    
       3573                1.00000    
       3574                1.00000    
       3575                1.00000    
       3576                1.00000    
       3577                1.00000    
       3578                1.00000    
       3579                1.00000    
       3580                1.00000    
       3581                1.00000    
       3582                1.00000    
       3583                1.00000    
       3584                1.00000    
       3585                1.00000    
       3586                1.00000    
       3587                1.00000    
       3588                1.00000    
       3589                1.00000    
       3590                1.00000    
       3591                1.00000    
       3592                1.00000    
       3593                1.00000    
       3594                1.00000    
       3595                1.00000    
       3596                1.00000    
       3597                1.00000    
       3598                1.00000    
       3599                1.00000    
       3600                1.00000    
       3601                1.00000    
       3602                1.00000    
       3603                1.00000    
       3604                1.00000    
       3605                1.00000    
       3606                1.00000    
       3607                1.00000    
       3608                1.00000    
       3609                1.00000    
       3610                1.00000    
       3611                1.00000    
       3612                1.00000    
       3613                1.00000    
       3614                1.00000    
       3615                1.00000    
       3616                1.00000    
       3617                1.00000    
       3618                1.00000    
       3619                1.00000    
       3620                1.00000    
       3621                1.00000    
       3622                1.00000    
       3623                1.00000    
       3624                1.00000    
       3625                1.00000    
       3626                1.00000    
       3627                1.00000    
       3628                1.00000    
       3629                1.00000    
       3630                1.00000    
       3631                1.00000    
       3632                1.00000    
       3633                1.00000    
       3634                1.00000    
       3635                1.00000    
       3636                1.00000    
       3637                1.00000    
       3638                1.00000    
       3639                1.00000    
       3640                1.00000    
       3641                1.00000    
       3642                1.00000    
       3643                1.00000    
       3644                1.00000    
       3645                1.00000    
       3646                1.00000    
       3647                1.00000    
       3648                1.00000    
       3649                1.00000    
       3650                1.00000    
       3651                1.00000    
       3652                1.00000    
       3653                1.00000    
       3654                1.00000    
       3655                1.00000    
       3656                1.00000    
       3657                1.00000    
       3658                1.00000    
       3659                1.00000    
       3660                1.00000    
       3661                1.00000    
       3662                1.00000    
       3663                1.00000    
       3664                1.00000    
       3665                1.00000    
       3666                1.00000    
       3667                1.00000    
       3668                1.00000    
       3669                1.00000    
       3670                1.00000    
       3671                1.00000    
       3672                1.00000    
       3673                1.00000    
       3674                1.00000    
       3675                1.00000    
       3676                1.00000    
       3677                1.00000    
       3678                1.00000    
       3679                1.00000    
       3680                1.00000    
       3681                1.00000    
       3682                1.00000    
       3683                1.00000    
       3684                1.00000    
       3685                1.00000    
       3686                1.00000    
       3687                1.00000    
       3688                1.00000    
       3689                1.00000    
       3690                1.00000    
       3691                1.00000    
       3692                1.00000    
       3693                1.00000    
       3694                1.00000    
       3695                1.00000    
       3696                1.00000    
       3697                1.00000    
       3698                1.00000    
       3699                1.00000    
       3700                1.00000    
       3701                1.00000    
       3702                1.00000    
       3703                1.00000    
       3704                1.00000    
       3705                1.00000    
       3706                1.00000    
       3707                1.00000    
       3708                1.00000    
       3709                1.00000    
       3710                1.00000    
       3711                1.00000    
       3712                1.00000    
       3713                1.00000    
       3714                1.00000    
       3715                1.00000    
       3716                1.00000    
       3717                1.00000    
       3718                1.00000    
       3719                1.00000    
       3720                1.00000    
       3721                1.00000    
       3722                1.00000    
       3723                1.00000    
       3724                1.00000    
       3725                1.00000    
       3726                1.00000    
       3727                1.00000    
       3728                1.00000    
       3729                1.00000    
       3730                1.00000    
       3731                1.00000    
       3732                1.00000    
       3733                1.00000    
       3734                1.00000    
       3735                1.00000    
       3736                1.00000    
       3737                1.00000    
       3738                1.00000    
       3739                1.00000    
       3740                1.00000    
       3741                1.00000    
       3742                1.00000    
       3743                1.00000    
       3744                1.00000    
       3745                1.00000    
       3746                1.00000    
       3747                1.00000    
       3748                1.00000    
       3749                1.00000    
       3750                1.00000    
       3751                1.00000    
       3752                1.00000    
       3753                1.00000    
       3754                1.00000    
       3755                1.00000    
       3756                1.00000    
       3757                1.00000    
       3758                1.00000    
       3759                1.00000    
       3760                1.00000    
       3761                1.00000    
       3762                1.00000    
       3763                1.00000    
       3764                1.00000    
       3765                1.00000    
       3766                1.00000    
       3767                1.00000    
       3768                1.00000    
       3769                1.00000    
       3770                1.00000    
       3771                1.00000    
       3772                1.00000    
       3773                1.00000    
       3774                1.00000    
       3775                1.00000    
       3776                1.00000    
       3777                1.00000    
       3778                1.00000    
       3779                1.00000    
       3780                1.00000    
       3781                1.00000    
       3782                1.00000    
       3783                1.00000    
       3784                1.00000    
       3785                1.00000    
       3786                1.00000    
       3787                1.00000    
       3788                1.00000    
       3789                1.00000    
       3790                1.00000    
       3791                1.00000    
       3792                1.00000    
       3793                1.00000    
       3794                1.00000    
       3795                1.00000    
       3796                1.00000    
       3797                1.00000    
       3798                1.00000    
       3799                1.00000    
       3800                1.00000    
       3801                1.00000    
       3802                1.00000    
       3803                1.00000    
       3804                1.00000    
       3805                1.00000    
       3806                1.00000    
       3807                1.00000    
       3808                1.00000    
       3809                1.00000    
       3810                1.00000    
       3811                1.00000    
       3812                1.00000    
       3813                1.00000    
       3814                1.00000    
       3815                1.00000    
       3816                1.00000    
       3817                1.00000    
       3818                1.00000    
       3819                1.00000    
       3820                1.00000    
       3821                1.00000    
       3822                1.00000    
       3823                1.00000    
       3824                1.00000    
       3825                1.00000    
       3826                1.00000    
       3827                1.00000    
       3828                1.00000    
       3829                1.00000    
       3830                1.00000    
       3831                1.00000    
       3832                1.00000    
       3833                1.00000    
       3834                1.00000    
       3835                1.00000    
       3836                1.00000    
       3837                1.00000    
       3838                1.00000    
       3839                1.00000    
       3840                1.00000    
       3841                1.00000    
       3842                1.00000    
       3843                1.00000    
       3844                1.00000    
       3845                1.00000    
       3846                1.00000    
       3847                1.00000    
       3848                1.00000    
       3849                1.00000    
       3850                1.00000    
       3851                1.00000    
       3852                1.00000    
       3853                1.00000    
       3854                1.00000    
       3855                1.00000    
       3856                1.00000    
       3857                1.00000    
       3858                1.00000    
       3859                1.00000    
       3860                1.00000    
       3861                1.00000    
       3862                1.00000    
       3863                1.00000    
       3864                1.00000    
       3865                1.00000    
       3866                1.00000    
       3867                1.00000    
       3868                1.00000    
       3869                1.00000    
       3870                1.00000    
       3871                1.00000    
       3872                1.00000    
       3873                1.00000    
       3874                1.00000    
       3875                1.00000    
       3876                1.00000    
       3877                1.00000    
       3878                1.00000    
       3879                1.00000    
       3880                1.00000    
       3881                1.00000    
       3882                1.00000    
       3883                1.00000    
       3884                1.00000    
       3885                1.00000    
       3886                1.00000    
       3887                1.00000    
       3888                1.00000    
       3889                1.00000    
       3890                1.00000    
       3891                1.00000    
       3892                1.00000    
       3893                1.00000    
       3894                1.00000    
       3895                1.00000    
       3896                1.00000    
       3897                1.00000    
       3898                1.00000    
       3899                1.00000    
       3900                1.00000    
       3901                1.00000    
       3902                1.00000    
       3903                1.00000    
       3904                1.00000    
       3905                1.00000    
       3906                1.00000    
       3907                1.00000    
       3908                1.00000    
       3909                1.00000    
       3910                1.00000    
       3911                1.00000    
       3912                1.00000    
       3913                1.00000    
       3914                1.00000    
       3915                1.00000    
       3916                1.00000    
       3917                1.00000    
       3918                1.00000    
       3919                1.00000    
       3920                1.00000    
       3921                1.00000    
       3922                1.00000    
       3923                1.00000    
       3924                1.00000    
       3925                1.00000    
       3926                1.00000    
       3927                1.00000    
       3928                1.00000    
       3929                1.00000    
       3930                1.00000    
       3931                1.00000    
       3932                1.00000    
       3933                1.00000    
       3934                1.00000    
       3935                1.00000    
       3936                1.00000    
       3937                1.00000    
       3938                1.00000    
       3939                1.00000    
       3940                1.00000    
       3941                1.00000    
       3942                1.00000    
       3943                1.00000    
       3944                1.00000    
       3945                1.00000    
       3946                1.00000    
       3947                1.00000    
       3948                1.00000    
       3949                1.00000    
       3950                1.00000    
       3951                1.00000    
       3952                1.00000    
       3953                1.00000    
       3954                1.00000    
       3955                1.00000    
       3956                1.00000    
       3957                1.00000    
       3958                1.00000    
       3959                1.00000    
       3960                1.00000    
       3961                1.00000    
       3962                1.00000    
       3963                1.00000    
       3964                1.00000    
       3965                1.00000    
       3966                1.00000    
       3967                1.00000    
       3968                1.00000    
       3969                1.00000    
       3970                1.00000    
       3971                1.00000    
       3972                1.00000    
       3973                1.00000    
       3974                1.00000    
       3975                1.00000    
       3976                1.00000    
       3977                1.00000    
       3978                1.00000    
       3979                1.00000    
       3980                1.00000    
       3981                1.00000    
       3982                1.00000    
       3983                1.00000    
       3984                1.00000    
       3985                1.00000    
       3986                1.00000    
       3987                1.00000    
       3988                1.00000    
       3989                1.00000    
       3990                1.00000    
       3991                1.00000    
       3992                1.00000    
       3993                1.00000    
       3994                1.00000    
       3995                1.00000    
       3996                1.00000    
       3997                1.00000    
       3998                1.00000    
       3999                1.00000    
       4000                1.00000    
       4001                1.00000    
       4002                1.00000    
       4003                1.00000    
       4004                1.00000    
       4005                1.00000    
       4006                1.00000    
       4007                1.00000    
       4008                1.00000    
       4009                1.00000    
       4010                1.00000    
       4011                1.00000    
       4012                1.00000    
       4013                1.00000    
       4014                1.00000    
       4015                1.00000    
       4016                1.00000    
       4017                1.00000    
       4018                1.00000    
       4019                1.00000    
       4020                1.00000    
       4021                1.00000    
       4022                1.00000    
       4023                1.00000    
       4024                1.00000    
       4025                1.00000    
       4026                1.00000    
       4027                1.00000    
       4028                1.00000    
       4029                1.00000    
       4030                1.00000    
       4031                1.00000    
       4032                1.00000    
       4033                1.00000    
       4034                1.00000    
       4035                1.00000    
       4036                1.00000    
       4037                1.00000    
       4038                1.00000    
       4039                1.00000    
       4040                1.00000    
       4041                1.00000    
       4042                1.00000    
       4043                1.00000    
       4044                1.00000    
       4045                1.00000    
       4046                1.00000    
       4047                1.00000    
       4048                1.00000    
       4049                1.00000    
       4050                1.00000    
       4051                1.00000    
       4052                1.00000    
       4053                1.00000    
       4054                1.00000    
       4055                1.00000    
       4056                1.00000    
       4057                1.00000    
       4058                1.00000    
       4059                1.00000    
       4060                1.00000    
       4061                1.00000    
       4062                1.00000    
       4063                1.00000    
       4064                1.00000    
       4065                1.00000    
       4066                1.00000    
       4067                1.00000    
       4068                1.00000    
       4069                1.00000    
       4070                1.00000    
       4071                1.00000    
       4072                1.00000    
       4073                1.00000    
       4074                1.00000    
       4075                1.00000    
       4076                1.00000    
       4077                1.00000    
       4078                1.00000    
       4079                1.00000    
       4080                1.00000    
       4081                1.00000    
       4082                1.00000    
       4083                1.00000    
       4084                1.00000    
       4085                1.00000    
       4086                1.00000    
       4087                1.00000    
       4088                1.00000    
       4089                1.00000    
       4090                1.00000    
       4091                1.00000    
       4092                1.00000    
       4093                1.00000    
       4094                1.00000    
       4095                1.00000    
       4096                1.00000    
       4097                1.00000    
       4098                1.00000    
       4099                1.00000    
       4100                1.00000    
       4101                1.00000    
       4102                1.00000    
       4103                1.00000    
       4104                1.00000    
       4105                1.00000    
       4106                1.00000    
       4107                1.00000    
       4108                1.00000    
       4109                1.00000    
       4110                1.00000    
       4111                1.00000    
       4112                1.00000    
       4113                1.00000    
       4114                1.00000    
       4115                1.00000    
       4116                1.00000    
       4117                1.00000    
       4118                1.00000    
       4119                1.00000    
       4120                1.00000    
       4121                1.00000    
       4122                1.00000    
       4123                1.00000    
       4124                1.00000    
       4125                1.00000    
       4126                1.00000    
       4127                1.00000    
       4128                1.00000    
       4129                1.00000    
       4130                1.00000    
       4131                1.00000    
       4132                1.00000    
       4133                1.00000    
       4134                1.00000    
       4135                1.00000    
       4136                1.00000    
       4137                1.00000    
       4138                1.00000    
       4139                1.00000    
       4140                1.00000    
       4141                1.00000    
       4142                1.00000    
       4143                1.00000    
       4144                1.00000    
       4145                1.00000    
       4146                1.00000    
       4147                1.00000    
       4148                1.00000    
       4149                1.00000    
       4150                1.00000    
       4151                1.00000    
       4152                1.00000    
       4153                1.00000    
       4154                1.00000    
       4155                1.00000    
       4156                1.00000    
       4157                1.00000    
       4158                1.00000    
       4159                1.00000    
       4160                1.00000    
       4161                1.00000    
       4162                1.00000    
       4163                1.00000    
       4164                1.00000    
       4165                1.00000    
       4166                1.00000    
       4167                1.00000    
       4168                1.00000    
       4169                1.00000    
       4170                1.00000    
       4171                1.00000    
       4172                1.00000    
       4173                1.00000    
       4174                1.00000    
       4175                1.00000    
       4176                1.00000    
       4177                1.00000    
       4178                1.00000    
       4179                1.00000    
       4180                1.00000    
       4181                1.00000    
       4182                1.00000    
       4183                1.00000    
       4184                1.00000    
       4185                1.00000    
       4186                1.00000    
       4187                1.00000    
       4188                1.00000    
       4189                1.00000    
       4190                1.00000    
       4191                1.00000    
       4192                1.00000    
       4193                1.00000    
       4194                1.00000    
       4195                1.00000    
       4196                1.00000    
       4197                1.00000    
       4198                1.00000    
       4199                1.00000    
       4200                1.00000    
       4201                1.00000    
       4202                1.00000    
       4203                1.00000    
       4204                1.00000    
       4205                1.00000    
       4206                1.00000    
       4207                1.00000    
       4208                1.00000    
       4209                1.00000    
       4210                1.00000    
       4211                1.00000    
       4212                1.00000    
       4213                1.00000    
       4214                1.00000    
       4215                1.00000    
       4216                1.00000    
       4217                1.00000    
       4218                1.00000    
       4219                1.00000    
       4220                1.00000    
       4221                1.00000    
       4222                1.00000    
       4223                1.00000    
       4224                1.00000    
       4225                1.00000    
       4226                1.00000    
       4227                1.00000    
       4228                1.00000    
       4229                1.00000    
       4230                1.00000    
       4231                1.00000    
       4232                1.00000    
       4233                1.00000    
       4234                1.00000    
       4235                1.00000    
       4236                1.00000    
       4237                1.00000    
       4238                1.00000    
       4239                1.00000    
       4240                1.00000    
       4241                1.00000    
       4242                1.00000    
       4243                1.00000    
       4244                1.00000    
       4245                1.00000    
       4246                1.00000    
       4247                1.00000    
       4248                1.00000    
       4249                1.00000    
       4250                1.00000    
       4251                1.00000    
       4252                1.00000    
       4253                1.00000    
       4254                1.00000    
       4255                1.00000    
       4256                1.00000    
       4257                1.00000    
       4258                1.00000    
       4259                1.00000    
       4260                1.00000    
       4261                1.00000    
       4262                1.00000    
       4263                1.00000    
       4264                1.00000    
       4265                1.00000    
       4266                1.00000    
       4267                1.00000    
       4268                1.00000    
       4269                1.00000    
       4270                1.00000    
       4271                1.00000    
       4272                1.00000    
       4273                1.00000    
       4274                1.00000    
       4275                1.00000    
       4276                1.00000    
       4277                1.00000    
       4278                1.00000    
       4279                1.00000    
       4280                1.00000    
       4281                1.00000    
       4282                1.00000    
       4283                1.00000    
       4284                1.00000    
       4285                1.00000    
       4286                1.00000    
       4287                1.00000    
       4288                1.00000    
       4289                1.00000    
       4290                1.00000    
       4291                1.00000    
       4292                1.00000    
       4293                1.00000    
       4294                1.00000    
       4295                1.00000    
       4296                1.00000    
       4297                1.00000    
       4298                1.00000    
       4299                1.00000    
       4300                1.00000    
       4301                1.00000    
       4302                1.00000    
       4303                1.00000    
       4304                1.00000    
       4305                1.00000    
       4306                1.00000    
       4307                1.00000    
       4308                1.00000    
       4309                1.00000    
       4310                1.00000    
       4311                1.00000    
       4312                1.00000    
       4313                1.00000    
       4314                1.00000    
       4315                1.00000    
       4316                1.00000    
       4317                1.00000    
       4318                1.00000    
       4319                1.00000    
       4320                1.00000    
       4321                1.00000    
       4322                1.00000    
       4323                1.00000    
       4324                1.00000    
       4325                1.00000    
       4326                1.00000    
       4327                1.00000    
       4328                1.00000    
       4329                1.00000    
       4330                1.00000    
       4331                1.00000    
       4332                1.00000    
       4333                1.00000    
       4334                1.00000    
       4335                1.00000    
       4336                1.00000    
       4337                1.00000    
       4338                1.00000    
       4339                1.00000    
       4340                1.00000    
       4341                1.00000    
       4342                1.00000    
       4343                1.00000    
       4344                1.00000    
       4345                1.00000    
       4346                1.00000    
       4347                1.00000    
       4348                1.00000    
       4349                1.00000    
       4350                1.00000    
       4351                1.00000    
       4352                1.00000    
       4353                1.00000    
       4354                1.00000    
       4355                1.00000    
       4356                1.00000    
       4357                1.00000    
       4358                1.00000    
       4359                1.00000    
       4360                1.00000    
       4361                1.00000    
       4362                1.00000    
       4363                1.00000    
       4364                1.00000    
       4365                1.00000    
       4366                1.00000    
       4367                1.00000    
       4368                1.00000    
       4369                1.00000    
       4370                1.00000    
       4371                1.00000    
       4372                1.00000    
       4373                1.00000    
       4374                1.00000    
       4375                1.00000    
       4376                1.00000    
       4377                1.00000    
       4378                1.00000    
       4379                1.00000    
       4380                1.00000    
       4381                1.00000    
       4382                1.00000    
       4383                1.00000    
       4384                1.00000    
       4385                1.00000    
       4386                1.00000    
       4387                1.00000    
       4388                1.00000    
       4389                1.00000    
       4390                1.00000    
       4391                1.00000    
       4392                1.00000    
       4393                1.00000    
       4394                1.00000    
       4395                1.00000    
       4396                1.00000    
       4397                1.00000    
       4398                1.00000    
       4399                1.00000    
       4400                1.00000    
       4401                1.00000    
       4402                1.00000    
       4403                1.00000    
       4404                1.00000    
       4405                1.00000    
       4406                1.00000    
       4407                1.00000    
       4408                1.00000    
       4409                1.00000    
       4410                1.00000    
       4411                1.00000    
       4412                1.00000    
       4413                1.00000    
       4414                1.00000    
       4415                1.00000    
       4416                1.00000    
       4417                1.00000    
       4418                1.00000    
       4419                1.00000    
       4420                1.00000    
       4421                1.00000    
       4422                1.00000    
       4423                1.00000    
       4424                1.00000    
       4425                1.00000    
       4426                1.00000    
       4427                1.00000    
       4428                1.00000    
       4429                1.00000    
       4430                1.00000    
       4431                1.00000    
       4432                1.00000    
       4433                1.00000    
       4434                1.00000    
       4435                1.00000    
       4436                1.00000    
       4437                1.00000    
       4438                1.00000    
       4439                1.00000    
       4440                1.00000    
       4441                1.00000    
       4442                1.00000    
       4443                1.00000    
       4444                1.00000    
       4445                1.00000    
       4446                1.00000    
       4447                1.00000    
       4448                1.00000    
       4449                1.00000    
       4450                1.00000    
       4451                1.00000    
       4452                1.00000    
       4453                1.00000    
       4454                1.00000    
       4455                1.00000    
       4456                1.00000    
       4457                1.00000    
       4458                1.00000    
       4459                1.00000    
       4460                1.00000    
       4461                1.00000    
       4462                1.00000    
       4463                1.00000    
       4464                1.00000    
       4465                1.00000    
       4466                1.00000    
       4467                1.00000    
       4468                1.00000    
       4469                1.00000    
       4470                1.00000    
       4471                1.00000    
       4472                1.00000    
       4473                1.00000    
       4474                1.00000    
       4475                1.00000    
       4476                1.00000    
       4477                1.00000    
       4478                1.00000    
       4479                1.00000    
       4480                1.00000    
       4481                1.00000    
       4482                1.00000    
       4483                1.00000    
       4484                1.00000    
       4485                1.00000    
       4486                1.00000    
       4487                1.00000    
       4488                1.00000    
       4489                1.00000    
       4490                1.00000    
       4491                1.00000    
       4492                1.00000    
       4493                1.00000    
       4494                1.00000    
       4495                1.00000    
       4496                1.00000    
       4497                1.00000    
       4498                1.00000    
       4499                1.00000    
       4500                1.00000    
       4501                1.00000    
       4502                1.00000    
       4503                1.00000    
       4504                1.00000    
       4505                1.00000    
       4506                1.00000    
       4507                1.00000    
       4508                1.00000    
       4509                1.00000    
       4510                1.00000    
       4511                1.00000    
       4512                1.00000    
       4513                1.00000    
       4514                1.00000    
       4515                1.00000    
       4516                1.00000    
       4517                1.00000    
       4518                1.00000    
       4519                1.00000    
       4520                1.00000    
       4521                1.00000    
       4522                1.00000    
       4523                1.00000    
       4524                1.00000    
       4525                1.00000    
       4526                1.00000    
       4527                1.00000    
       4528                1.00000    
       4529                1.00000    
       4530                1.00000    
       4531                1.00000    
       4532                1.00000    
       4533                1.00000    
       4534                1.00000    
       4535                1.00000    
       4536                1.00000    
       4537                1.00000    
       4538                1.00000    
       4539                1.00000    
       4540                1.00000    
       4541                1.00000    
       4542                1.00000    
       4543                1.00000    
       4544                1.00000    
       4545                1.00000    
       4546                1.00000    
       4547                1.00000    
       4548                1.00000    
       4549                1.00000    
       4550                1.00000    
       4551                1.00000    
       4552                1.00000    
       4553                1.00000    
       4554                1.00000    
       4555                1.00000    
       4556                1.00000    
       4557                1.00000    
       4558                1.00000    
       4559                1.00000    
       4560                1.00000    
       4561                1.00000    
       4562                1.00000    
       4563                1.00000    
       4564                1.00000    
       4565                1.00000    
       4566                1.00000    
       4567                1.00000    
       4568                1.00000    
       4569                1.00000    
       4570                1.00000    
       4571                1.00000    
       4572                1.00000    
       4573                1.00000    
       4574                1.00000    
       4575                1.00000    
       4576                1.00000    
       4577                1.00000    
       4578                1.00000    
       4579                1.00000    
       4580                1.00000    
       4581                1.00000    
       4582                1.00000    
       4583                1.00000    
       4584                1.00000    
       4585                1.00000    
       4586                1.00000    
       4587                1.00000    
       4588                1.00000    
       4589                1.00000    
       4590                1.00000    
       4591                1.00000    
       4592                1.00000    
       4593                1.00000    
       4594                1.00000    
       4595                1.00000    
       4596                1.00000    
       4597                1.00000    
       4598                1.00000    
       4599                1.00000    
       4600                1.00000    
       4601                1.00000    
       4602                1.00000    
       4603                1.00000    
       4604                1.00000    
       4605                1.00000    
       4606                1.00000    
       4607                1.00000    
       4608                1.00000    
       4609                1.00000    
       4610                1.00000    
       4611                1.00000    
       4612                1.00000    
       4613                1.00000    
       4614                1.00000    
       4615                1.00000    
       4616                1.00000    
       4617                1.00000    
       4618                1.00000    
       4619                1.00000    
       4620                1.00000    
       4621                1.00000    
       4622                1.00000    
       4623                1.00000    
       4624                1.00000    
       4625                1.00000    
       4626                1.00000    
       4627                1.00000    
       4628                1.00000    
       4629                1.00000    
       4630                1.00000    
       4631                1.00000    
       4632                1.00000    
       4633                1.00000    
       4634                1.00000    
       4635                1.00000    
       4636                1.00000    
       4637                1.00000    
       4638                1.00000    
       4639                1.00000    
       4640                1.00000    
       4641                1.00000    
       4642                1.00000    
       4643                1.00000    
       4644                1.00000    
       4645                1.00000    
       4646                1.00000    
       4647                1.00000    
       4648                1.00000    
       4649                1.00000    
       4650                1.00000    
       4651                1.00000    
       4652                1.00000    
       4653                1.00000    
       4654                1.00000    
       4655                1.00000    
       4656                1.00000    
       4657                1.00000    
       4658                1.00000    
       4659                1.00000    
       4660                1.00000    
       4661                1.00000    
       4662                1.00000    
       4663                1.00000    
       4664                1.00000    
       4665                1.00000    
       4666                1.00000    
       4667                1.00000    
       4668                1.00000    
       4669                1.00000    
       4670                1.00000    
       4671                1.00000    
       4672                1.00000    
       4673                1.00000    
       4674                1.00000    
       4675                1.00000    
       4676                1.00000    
       4677                1.00000    
       4678                1.00000    
       4679                1.00000    
       4680                1.00000    
       4681                1.00000    
       4682                1.00000    
       4683                1.00000    
       4684                1.00000    
       4685                1.00000    
       4686                1.00000    
       4687                1.00000    
       4688                1.00000    
       4689                1.00000    
       4690                1.00000    
       4691                1.00000    
       4692                1.00000    
       4693                1.00000    
       4694                1.00000    
       4695                1.00000    
       4696                1.00000    
       4697                1.00000    
       4698                1.00000    
       4699                1.00000    
       4700                1.00000    
       4701                1.00000    
       4702                1.00000    
       4703                1.00000    
       4704                1.00000    
       4705                1.00000    
       4706                1.00000    
       4707                1.00000    
       4708                1.00000    
       4709                1.00000    
       4710                1.00000    
       4711                1.00000    
       4712                1.00000    
       4713                1.00000    
       4714                1.00000    
       4715                1.00000    
       4716                1.00000    
       4717                1.00000    
       4718                1.00000    
       4719                1.00000    
       4720                1.00000    
       4721                1.00000    
       4722                1.00000    
       4723                1.00000    
       4724                1.00000    
       4725                1.00000    
       4726                1.00000    
       4727                1.00000    
       4728                1.00000    
       4729                1.00000    
       4730                1.00000    
       4731                1.00000    
       4732                1.00000    
       4733                1.00000    
       4734                1.00000    
       4735                1.00000    
       4736                1.00000    
       4737                1.00000    
       4738                1.00000    
       4739                1.00000    
       4740                1.00000    
       4741                1.00000    
       4742                1.00000    
       4743                1.00000    
       4744                1.00000    
       4745                1.00000    
       4746                1.00000    
       4747                1.00000    
       4748                1.00000    
       4749                1.00000    
       4750                1.00000    
       4751                1.00000    
       4752                1.00000    
       4753                1.00000    
       4754                1.00000    
       4755                1.00000    
       4756                1.00000    
       4757                1.00000    
       4758                1.00000    
       4759                1.00000    
       4760                1.00000    
       4761                1.00000    
       4762                1.00000    
       4763                1.00000    
       4764                1.00000    
       4765                1.00000    
       4766                1.00000    
       4767                1.00000    
       4768                1.00000    
       4769                1.00000    
       4770                1.00000    
       4771                1.00000    
       4772                1.00000    
       4773                1.00000    
       4774                1.00000    
       4775                1.00000    
       4776                1.00000    
       4777                1.00000    
       4778                1.00000    
       4779                1.00000    
       4780                1.00000    
       4781                1.00000    
       4782                1.00000    
       4783                1.00000    
       4784                1.00000    
       4785                1.00000    
       4786                1.00000    
       4787                1.00000    
       4788                1.00000    
       4789                1.00000    
       4790                1.00000    
       4791                1.00000    
       4792                1.00000    
       4793                1.00000    
       4794                1.00000    
       4795                1.00000    
       4796                1.00000    
       4797                1.00000    
       4798                1.00000    
       4799                1.00000    
       4800                1.00000    
       4801                1.00000    
       4802                1.00000    
       4803                1.00000    
       4804                1.00000    
       4805                1.00000    
       4806                1.00000    
       4807                1.00000    
       4808                1.00000    
       4809                1.00000    
       4810                1.00000    
       4811                1.00000    
       4812                1.00000    
       4813                1.00000    
       4814                1.00000    
       4815                1.00000    
       4816                1.00000    
       4817                1.00000    
       4818                1.00000    
       4819                1.00000    
       4820                1.00000    
       4821                1.00000    
       4822                1.00000    
       4823                1.00000    
       4824                1.00000    
       4825                1.00000    
       4826                1.00000    
       4827                1.00000    
       4828                1.00000    
       4829                1.00000    
       4830                1.00000    
       4831                1.00000    
       4832                1.00000    
       4833                1.00000    
       4834                1.00000    
       4835                1.00000    
       4836                1.00000    
       4837                1.00000    
       4838                1.00000    
       4839                1.00000    
       4840                1.00000    
       4841                1.00000    
       4842                1.00000    
       4843                1.00000    
       4844                1.00000    
       4845                1.00000    
       4846                1.00000    
       4847                1.00000    
       4848                1.00000    
       4849                1.00000    
       4850                1.00000    
       4851                1.00000    
       4852                1.00000    
       4853                1.00000    
       4854                1.00000    
       4855                1.00000    
       4856                1.00000    
       4857                1.00000    
       4858                1.00000    
       4859                1.00000    
       4860                1.00000    
       4861                1.00000    
       4862                1.00000    
       4863                1.00000    
       4864                1.00000    
       4865                1.00000    
       4866                1.00000    
       4867                1.00000    
       4868                1.00000    
       4869                1.00000    
       4870                1.00000    
       4871                1.00000    
       4872                1.00000    
       4873                1.00000    
       4874                1.00000    
       4875                1.00000    
       4876                1.00000    
       4877                1.00000    
       4878                1.00000    
       4879                1.00000    
       4880                1.00000    
       4881                1.00000    
       4882                1.00000    
       4883                1.00000    
       4884                1.00000    
       4885                1.00000    
       4886                1.00000    
       4887                1.00000    
       4888                1.00000    
       4889                1.00000    
       4890                1.00000    
       4891                1.00000    
       4892                1.00000    
       4893                1.00000    
       4894                1.00000    
       4895                1.00000    
       4896                1.00000    
       4897                1.00000    
       4898                1.00000    
       4899                1.00000    
       4900                1.00000    
       4901                1.00000    
       4902                1.00000    
       4903                1.00000    
       4904                1.00000    
       4905                1.00000    
       4906                1.00000    
       4907                1.00000    
       4908                1.00000    
       4909                1.00000    
       4910                1.00000    
       4911                1.00000    
       4912                1.00000    
       4913                1.00000    
       4914                1.00000    
       4915                1.00000    
       4916                1.00000    
       4917                1.00000    
       4918                1.00000    
       4919                1.00000    
       4920                1.00000    
       4921                1.00000    
       4922                1.00000    
       4923                1.00000    
       4924                1.00000    
       4925                1.00000    
       4926                1.00000    
       4927                1.00000    
       4928                1.00000    
       4929                1.00000    
       4930                1.00000    
       4931                1.00000    
       4932                1.00000    
       4933                1.00000    
       4934                1.00000    
       4935                1.00000    
       4936                1.00000    
       4937                1.00000    
       4938                1.00000    
       4939                1.00000    
       4940                1.00000    
       4941                1.00000    
       4942                1.00000    
       4943                1.00000    
       4944                1.00000    
       4945                1.00000    
       4946                1.00000    
       4947                1.00000    
       4948                1.00000    
       4949                1.00000    
       4950                1.00000    
       4951                1.00000    
       4952                1.00000    
       4953                1.00000    
       4954                1.00000    
       4955                1.00000    
       4956                1.00000    
       4957                1.00000    
       4958                1.00000    
       4959                1.00000    
       4960                1.00000    
       4961                1.00000    
       4962                1.00000    
       4963                1.00000    
       4964                1.00000    
       4965                1.00000    
       4966                1.00000    
       4967                1.00000    
       4968                1.00000    
       4969                1.00000    
       4970                1.00000    
       4971                1.00000    
       4972                1.00000    
       4973                1.00000    
       4974                1.00000    
       4975                1.00000    
       4976                1.00000    
       4977                1.00000    
       4978                1.00000    
       4979                1.00000    
       4980                1.00000    
       4981                1.00000    
       4982                1.00000    
       4983                1.00000    
       4984                1.00000    
       4985                1.00000    
       4986                1.00000    
       4987                1.00000    
       4988                1.00000    
       4989                1.00000    
       4990                1.00000    
       4991                1.00000    
       4992                1.00000    
       4993                1.00000    
       4994                1.00000    
       4995                1.00000    
       4996                1.00000    
       4997                1.00000    
       4998                1.00000    
       4999                1.00000    
       5000                1.00000    
       5001                1.00000    
       5002                1.00000    
       5003                1.00000    
       5004                1.00000    
       5005                1.00000    
       5006                1.00000    
       5007                1.00000    
       5008                1.00000    
       5009                1.00000    
       5010                1.00000    
       5011                1.00000    
       5012                1.00000    
       5013                1.00000    
       5014                1.00000    
       5015                1.00000    
       5016                1.00000    
       5017                1.00000    
       5018                1.00000    
       5019                1.00000    
       5020                1.00000    
       5021                1.00000    
       5022                1.00000    
       5023                1.00000    
       5024                1.00000    
       5025                1.00000    
       5026                1.00000    
       5027                1.00000    
       5028                1.00000    
       5029                1.00000    
       5030                1.00000    
       5031                1.00000    
       5032                1.00000    
       5033                1.00000    
       5034                1.00000    
       5035                1.00000    
       5036                1.00000    
       5037                1.00000    
       5038                1.00000    
       5039                1.00000    
       5040                1.00000    
       5041                1.00000    
       5042                1.00000    
       5043                1.00000    
       5044                1.00000    
       5045                1.00000    
       5046                1.00000    
       5047                1.00000    
       5048                1.00000    
       5049                1.00000    
       5050                1.00000    
       5051                1.00000    
       5052                1.00000    
       5053                1.00000    
       5054                1.00000    
       5055                1.00000    
       5056                1.00000    
       5057                1.00000    
       5058                1.00000    
       5059                1.00000    
       5060                1.00000    
       5061                1.00000    
       5062                1.00000    
       5063                1.00000    
       5064                1.00000    
       5065                1.00000    
       5066                1.00000    
       5067                1.00000    
       5068                1.00000    
       5069                1.00000    
       5070                1.00000    
       5071                1.00000    
       5072                1.00000    
       5073                1.00000    
       5074                1.00000    
       5075                1.00000    
       5076                1.00000    
       5077                1.00000    
       5078                1.00000    
       5079                1.00000    
       5080                1.00000    
       5081                1.00000    
       5082                1.00000    
       5083                1.00000    
       5084                1.00000    
       5085                1.00000    
       5086                1.00000    
       5087                1.00000    
       5088                1.00000    
       5089                1.00000    
       5090                1.00000    
       5091                1.00000    
       5092                1.00000    
       5093                1.00000    
       5094                1.00000    
       5095                1.00000    
       5096                1.00000    
       5097                1.00000    
       5098                1.00000    
       5099                1.00000    
       5100                1.00000    
       5101                1.00000    
       5102                1.00000    
       5103                1.00000    
       5104                1.00000    
       5105                1.00000    
       5106                1.00000    
       5107                1.00000    
       5108                1.00000    
       5109                1.00000    
       5110                1.00000    
       5111                1.00000    
       5112                1.00000    
       5113                1.00000    
       5114                1.00000    
       5115                1.00000    
       5116                1.00000    
       5117                1.00000    
       5118                1.00000    
       5119                1.00000    
       5120                1.00000    
       5121                1.00000    
       5122                1.00000    
       5123                1.00000    
       5124                1.00000    
       5125                1.00000    
       5126                1.00000    
       5127                1.00000    
       5128                1.00000    
       5129                1.00000    
       5130                1.00000    
       5131                1.00000    
       5132                1.00000    
       5133                1.00000    
       5134                1.00000    
       5135                1.00000    
       5136                1.00000    
       5137                1.00000    
       5138                1.00000    
       5139                1.00000    
       5140                1.00000    
       5141                1.00000    
       5142                1.00000    
       5143                1.00000    
       5144                1.00000    
       5145                1.00000    
       5146                1.00000    
       5147                1.00000    
       5148                1.00000    
       5149                1.00000    
       5150                1.00000    
       5151                1.00000    
       5152                1.00000    
       5153                1.00000    
       5154                1.00000    
       5155                1.00000    
       5156                1.00000    
       5157                1.00000    
       5158                1.00000    
       5159                1.00000    
       5160                1.00000    
       5161                1.00000    
       5162                1.00000    
       5163                1.00000    
       5164                1.00000    
       5165                1.00000    
       5166                1.00000    
       5167                1.00000    
       5168                1.00000    
       5169                1.00000    
       5170                1.00000    
       5171                1.00000    
       5172                1.00000    
       5173                1.00000    
       5174                1.00000    
       5175                1.00000    
       5176                1.00000    
       5177                1.00000    
       5178                1.00000    
       5179                1.00000    
       5180                1.00000    
       5181                1.00000    
       5182                1.00000    
       5183                1.00000    
       5184                1.00000    
       5185                1.00000    
       5186                1.00000    
       5187                1.00000    
       5188                1.00000    
       5189                1.00000    
       5190                1.00000    
       5191                1.00000    
       5192                1.00000    
       5193                1.00000    
       5194                1.00000    
       5195                1.00000    
       5196                1.00000    
       5197                1.00000    
       5198                1.00000    
       5199                1.00000    
       5200                1.00000    
       5201                1.00000    
       5202                1.00000    
       5203                1.00000    
       5204                1.00000    
       5205                1.00000    
       5206                1.00000    
       5207                1.00000    
       5208                1.00000    
       5209                1.00000    
       5210                1.00000    
       5211                1.00000    
       5212                1.00000    
       5213                1.00000    
       5214                1.00000    
       5215                1.00000    
       5216                1.00000    
       5217                1.00000    
       5218                1.00000    
       5219                1.00000    
       5220                1.00000    
       5221                1.00000    
       5222                1.00000    
       5223                1.00000    
       5224                1.00000    
       5225                1.00000    
       5226                1.00000    
       5227                1.00000    
       5228                1.00000    
       5229                1.00000    
       5230                1.00000    
       5231                1.00000    
       5232                1.00000    
       5233                1.00000    
       5234                1.00000    
       5235                1.00000    
       5236                1.00000    
       5237                1.00000    
       5238                1.00000    
       5239                1.00000    
       5240                1.00000    
       5241                1.00000    
       5242                1.00000    
       5243                1.00000    
       5244                1.00000    
       5245                1.00000    
       5246                1.00000    
       5247                1.00000    
       5248                1.00000    
       5249                1.00000    
       5250                1.00000    
       5251                1.00000    
       5252                1.00000    
       5253                1.00000    
       5254                1.00000    
       5255                1.00000    
       5256                1.00000    
       5257                1.00000    
       5258                1.00000    
       5259                1.00000    
       5260                1.00000    
       5261                1.00000    
       5262                1.00000    
       5263                1.00000    
       5264                1.00000    
       5265                1.00000    
       5266                1.00000    
       5267                1.00000    
       5268                1.00000    
       5269                1.00000    
       5270                1.00000    
       5271                1.00000    
       5272                1.00000    
       5273                1.00000    
       5274                1.00000    
       5275                1.00000    
       5276                1.00000    
       5277                1.00000    
       5278                1.00000    
       5279                1.00000    
       5280                1.00000    
       5281                1.00000    
       5282                1.00000    
       5283                1.00000    
       5284                1.00000    
       5285                1.00000    
       5286                1.00000    
       5287                1.00000    
       5288                1.00000    
       5289                1.00000    
       5290                1.00000    
       5291                1.00000    
       5292                1.00000    
       5293                1.00000    
       5294                1.00000    
       5295                1.00000    
       5296                1.00000    
       5297                1.00000    
       5298                1.00000    
       5299                1.00000    
       5300                1.00000    
       5301                1.00000    
       5302                1.00000    
       5303                1.00000    
       5304                1.00000    
       5305                1.00000    
       5306                1.00000    
       5307                1.00000    
       5308                1.00000    
       5309                1.00000    
       5310                1.00000    
       5311                1.00000    
       5312                1.00000    
       5313                1.00000    
       5314                1.00000    
       5315                1.00000    
       5316                1.00000    
       5317                1.00000    
       5318                1.00000    
       5319                1.00000    
       5320                1.00000    
       5321                1.00000    
       5322                1.00000    
       5323                1.00000    
       5324                1.00000    
       5325                1.00000    
       5326                1.00000    
       5327                1.00000    
       5328                1.00000    
       5329                1.00000    
       5330                1.00000    
       5331                1.00000    
       5332                1.00000    
       5333                1.00000    
       5334                1.00000    
       5335                1.00000    
       5336                1.00000    
       5337                1.00000    
       5338                1.00000    
       5339                1.00000    
       5340                1.00000    
       5341                1.00000    
       5342                1.00000    
       5343                1.00000    
       5344                1.00000    
       5345                1.00000    
       5346                1.00000    
       5347                1.00000    
       5348                1.00000    
       5349                1.00000    
       5350                1.00000    
       5351                1.00000    
       5352                1.00000    
       5353                1.00000    
       5354                1.00000    
       5355                1.00000    
       5356                1.00000    
       5357                1.00000    
       5358                1.00000    
       5359                1.00000    
       5360                1.00000    
       5361                1.00000    
       5362                1.00000    
       5363                1.00000    
       5364                1.00000    
       5365                1.00000    
       5366                1.00000    
       5367                1.00000    
       5368                1.00000    
       5369                1.00000    
       5370                1.00000    
       5371                1.00000    
       5372                1.00000    
       5373                1.00000    
       5374                1.00000    
       5375                1.00000    
       5376                1.00000    
       5377                1.00000    
       5378                1.00000    
       5379                1.00000    
       5380                1.00000    
       5381                1.00000    
       5382                1.00000    
       5383                1.00000    
       5384                1.00000    
       5385                1.00000    
       5386                1.00000    
       5387                1.00000    
       5388                1.00000    
       5389                1.00000    
       5390                1.00000    
       5391                1.00000    
       5392                1.00000    
       5393                1.00000    
       5394                1.00000    
       5395                1.00000    
       5396                1.00000    
       5397                1.00000    
       5398                1.00000    
       5399                1.00000    
       5400                1.00000    
       5401                1.00000    
       5402                1.00000    
       5403                1.00000    
       5404                1.00000    
       5405                1.00000    
       5406                1.00000    
       5407                1.00000    
       5408                1.00000    
       5409                1.00000    
       5410                1.00000    
       5411                1.00000    
       5412                1.00000    
       5413                1.00000    
       5414                1.00000    
       5415                1.00000    
       5416                1.00000    
       5417                1.00000    
       5418                1.00000    
       5419                1.00000    
       5420                1.00000    
       5421                1.00000    
       5422                1.00000    
       5423                1.00000    
       5424                1.00000    
       5425                1.00000    
       5426                1.00000    
       5427                1.00000    
       5428                1.00000    
       5429                1.00000    
       5430                1.00000    
       5431                1.00000    
       5432                1.00000    
       5433                1.00000    
       5434                1.00000    
       5435                1.00000    
       5436                1.00000    
       5437                1.00000    
       5438                1.00000    
       5439                1.00000    
       5440                1.00000    
       5441                1.00000    
       5442                1.00000    
       5443                1.00000    
       5444                1.00000    
       5445                1.00000    
       5446                1.00000    
       5447                1.00000    
       5448                1.00000    
       5449                1.00000    
       5450                1.00000    
       5451                1.00000    
       5452                1.00000    
       5453                1.00000    
       5454                1.00000    
       5455                1.00000    
       5456                1.00000    
       5457                1.00000    
       5458                1.00000    
       5459                1.00000    
       5460                1.00000    
       5461                1.00000    
       5462                1.00000    
       5463                1.00000    
       5464                1.00000    
       5465                1.00000    
       5466                1.00000    
       5467                1.00000    
       5468                1.00000    
       5469                1.00000    
       5470                1.00000    
       5471                1.00000    
       5472                1.00000    
       5473                1.00000    
       5474                1.00000    
       5475                1.00000    
       5476                1.00000    
       5477                1.00000    
       5478                1.00000    
       5479                1.00000    
       5480                1.00000    
       5481                1.00000    
       5482                1.00000    
       5483                1.00000    
       5484                1.00000    
       5485                1.00000    
       5486                1.00000    
       5487                1.00000    
       5488                1.00000    
       5489                1.00000    
       5490                1.00000    
       5491                1.00000    
       5492                1.00000    
       5493                1.00000    
       5494                1.00000    
       5495                1.00000    
       5496                1.00000    
       5497                1.00000    
       5498                1.00000    
       5499                1.00000    
       5500                1.00000    
       5501                1.00000    
       5502                1.00000    
       5503                1.00000    
       5504                1.00000    
       5505                1.00000    
       5506                1.00000    
       5507                1.00000    
       5508                1.00000    
       5509                1.00000    
       5510                1.00000    
       5511                1.00000    
       5512                1.00000    
       5513                1.00000    
       5514                1.00000    
       5515                1.00000    
       5516                1.00000    
       5517                1.00000    
       5518                1.00000    
       5519                1.00000    
       5520                1.00000    
       5521                1.00000    
       5522                1.00000    
       5523                1.00000    
       5524                1.00000    
       5525                1.00000    
       5526                1.00000    
       5527                1.00000    
       5528                1.00000    
       5529                1.00000    
       5530                1.00000    
       5531                1.00000    
       5532                1.00000    
       5533                1.00000    
       5534                1.00000    
       5535                1.00000    
       5536                1.00000    
       5537                1.00000    
       5538                1.00000    
       5539                1.00000    
       5540                1.00000    
       5541                1.00000    
       5542                1.00000    
       5543                1.00000    
       5544                1.00000    
       5545                1.00000    
       5546                1.00000    
       5547                1.00000    
       5548                1.00000    
       5549                1.00000    
       5550                1.00000    
       5551                1.00000    
       5552                1.00000    
       5553                1.00000    
       5554                1.00000    
       5555                1.00000    
       5556                1.00000    
       5557                1.00000    
       5558                1.00000    
       5559                1.00000    
       5560                1.00000    
       5561                1.00000    
       5562                1.00000    
       5563                1.00000    
       5564                1.00000    
       5565                1.00000    
       5566                1.00000    
       5567                1.00000    
       5568                1.00000    
       5569                1.00000    
       5570                1.00000    
       5571                1.00000    
       5572                1.00000    
       5573                1.00000    
       5574                1.00000    
       5575                1.00000    
       5576                1.00000    
       5577                1.00000    
       5578                1.00000    
       5579                1.00000    
       5580                1.00000    
       5581                1.00000    
       5582                1.00000    
       5583                1.00000    
       5584                1.00000    
       5585                1.00000    
       5586                1.00000    
       5587                1.00000    
       5588                1.00000    
       5589                1.00000    
       5590                1.00000    
       5591                1.00000    
       5592                1.00000    
       5593                1.00000    
       5594                1.00000    
       5595                1.00000    
       5596                1.00000    
       5597                1.00000    
       5598                1.00000    
       5599                1.00000    
       5600                1.00000    
       5601                1.00000    
       5602                1.00000    
       5603                1.00000    
       5604                1.00000    
       5605                1.00000    
       5606                1.00000    
       5607                1.00000    
       5608                1.00000    
       5609                1.00000    
       5610                1.00000    
       5611                1.00000    
       5612                1.00000    
       5613                1.00000    
       5614                1.00000    
       5615                1.00000    
       5616                1.00000    
       5617                1.00000    
       5618                1.00000    
       5619                1.00000    
       5620                1.00000    
       5621                1.00000    
       5622                1.00000    
       5623                1.00000    
       5624                1.00000    
       5625                1.00000    
       5626                1.00000    
       5627                1.00000    
       5628                1.00000    
       5629                1.00000    
       5630                1.00000    
       5631                1.00000    
       5632                1.00000    
       5633                1.00000    
       5634                1.00000    
       5635                1.00000    
       5636                1.00000    
       5637                1.00000    
       5638                1.00000    
       5639                1.00000    
       5640                1.00000    
       5641                1.00000    
       5642                1.00000    
       5643                1.00000    
       5644                1.00000    
       5645                1.00000    
       5646                1.00000    
       5647                1.00000    
       5648                1.00000    
       5649                1.00000    
       5650                1.00000    
       5651                1.00000    
       5652                1.00000    
       5653                1.00000    
       5654                1.00000    
       5655                1.00000    
       5656                1.00000    
       5657                1.00000    
       5658                1.00000    
       5659                1.00000    
       5660                1.00000    
       5661                1.00000    
       5662                1.00000    
       5663                1.00000    
       5664                1.00000    
       5665                1.00000    
       5666                1.00000    
       5667                1.00000    
       5668                1.00000    
       5669                1.00000    
       5670                1.00000    
       5671                1.00000    
       5672                1.00000    
       5673                1.00000    
       5674                1.00000    
       5675                1.00000    
       5676                1.00000    
       5677                1.00000    
       5678                1.00000    
       5679                1.00000    
       5680                1.00000    
       5681                1.00000    
       5682                1.00000    
       5683                1.00000    
       5684                1.00000    
       5685                1.00000    
       5686                1.00000    
       5687                1.00000    
       5688                1.00000    
       5689                1.00000    
       5690                1.00000    
       5691                1.00000    
       5692                1.00000    
       5693                1.00000    
       5694                1.00000    
       5695                1.00000    
       5696                1.00000    
       5697                1.00000    
       5698                1.00000    
       5699                1.00000    
       5700                1.00000    
       5701                1.00000    
       5702                1.00000    
       5703                1.00000    
       5704                1.00000    
       5705                1.00000    
       5706                1.00000    
       5707                1.00000    
       5708                1.00000    
       5709                1.00000    
       5710                1.00000    
       5711                1.00000    
       5712                1.00000    
       5713                1.00000    
       5714                1.00000    
       5715                1.00000    
       5716                1.00000    
       5717                1.00000    
       5718                1.00000    
       5719                1.00000    
       5720                1.00000    
       5721                1.00000    
       5722                1.00000    
       5723                1.00000    
       5724                1.00000    
       5725                1.00000    
       5726                1.00000    
       5727                1.00000    
       5728                1.00000    
       5729                1.00000    
       5730                1.00000    
       5731                1.00000    
       5732                1.00000    
       5733                1.00000    
       5734                1.00000    
       5735                1.00000    
       5736                1.00000    
       5737                1.00000    
       5738                1.00000    
       5739                1.00000    
       5740                1.00000    
       5741                1.00000    
       5742                1.00000    
       5743                1.00000    
       5744                1.00000    
       5745                1.00000    
       5746                1.00000    
       5747                1.00000    
       5748                1.00000    
       5749                1.00000    
       5750                1.00000    
       5751                1.00000    
       5752                1.00000    
       5753                1.00000    
       5754                1.00000    
       5755                1.00000    
       5756                1.00000    
       5757                1.00000    
       5758                1.00000    
       5759                1.00000    
       5760                1.00000    
       5761                1.00000    
       5762                1.00000    
       5763                1.00000    
       5764                1.00000    
       5765                1.00000    
       5766                1.00000    
       5767                1.00000    
       5768                1.00000    
       5769                1.00000    
       5770                1.00000    
       5771                1.00000    
       5772                1.00000    
       5773                1.00000    
       5774                1.00000    
       5775                1.00000    
       5776                1.00000    
       5777                1.00000    
       5778                1.00000    
       5779                1.00000    
       5780                1.00000    
       5781                1.00000    
       5782                1.00000    
       5783                1.00000    
       5784                1.00000    
       5785                1.00000    
       5786                1.00000    
       5787                1.00000    
       5788                1.00000    
       5789                1.00000    
       5790                1.00000    
       5791                1.00000    
       5792                1.00000    
       5793                1.00000    
       5794                1.00000    
       5795                1.00000    
       5796                1.00000    
       5797                1.00000    
       5798                1.00000    
       5799                1.00000    
       5800                1.00000    
       5801                1.00000    
       5802                1.00000    
       5803                1.00000    
       5804                1.00000    
       5805                1.00000    
       5806                1.00000    
       5807                1.00000    
       5808                1.00000    
       5809                1.00000    
       5810                1.00000    
       5811                1.00000    
       5812                1.00000    
       5813                1.00000    
       5814                1.00000    
       5815                1.00000    
       5816                1.00000    
       5817                1.00000    
       5818                1.00000    
       5819                1.00000    
       5820                1.00000    
       5821                1.00000    
       5822                1.00000    
       5823                1.00000    
       5824                1.00000    
       5825                1.00000    
       5826                1.00000    
       5827                1.00000    
       5828                1.00000    
       5829                1.00000    
       5830                1.00000    
       5831                1.00000    
       5832                1.00000    
       5833                1.00000    
       5834                1.00000    
       5835                1.00000    
       5836                1.00000    
       5837                1.00000    
       5838                1.00000    
       5839                1.00000    
       5840                1.00000    
       5841                1.00000    
       5842                1.00000    
       5843                1.00000    
       5844                1.00000    
       5845                1.00000    
       5846                1.00000    
       5847                1.00000    
       5848                1.00000    
       5849                1.00000    
       5850                1.00000    
       5851                1.00000    
       5852                1.00000    
       5853                1.00000    
       5854                1.00000    
       5855                1.00000    
       5856                1.00000    
       5857                1.00000    
       5858                1.00000    
       5859                1.00000    
       5860                1.00000    
       5861                1.00000    
       5862                1.00000    
       5863                1.00000    
       5864                1.00000    
       5865                1.00000    
       5866                1.00000    
       5867                1.00000    
       5868                1.00000    
       5869                1.00000    
       5870                1.00000    
       5871                1.00000    
       5872                1.00000    
       5873                1.00000    
       5874                1.00000    
       5875                1.00000    
       5876                1.00000    
       5877                1.00000    
       5878                1.00000    
       5879                1.00000    
       5880                1.00000    
       5881                1.00000    
       5882                1.00000    
       5883                1.00000    
       5884                1.00000    
       5885                1.00000    
       5886                1.00000    
       5887                1.00000    
       5888                1.00000    
       5889                1.00000    
       5890                1.00000    
       5891                1.00000    
       5892                1.00000    
       5893                1.00000    
       5894                1.00000    
       5895                1.00000    
       5896                1.00000    
       5897                1.00000    
       5898                1.00000    
       5899                1.00000    
       5900                1.00000    
       5901                1.00000    
       5902                1.00000    
       5903                1.00000    
       5904                1.00000    
       5905                1.00000    
       5906                1.00000    
       5907                1.00000    
       5908                1.00000    
       5909                1.00000    
       5910                1.00000    
       5911                1.00000    
       5912                1.00000    
       5913                1.00000    
       5914                1.00000    
       5915                1.00000    
       5916                1.00000    
       5917                1.00000    
       5918                1.00000    
       5919                1.00000    
       5920                1.00000    
       5921                1.00000    
       5922                1.00000    
       5923                1.00000    
       5924                1.00000    
       5925                1.00000    
       5926                1.00000    
       5927                1.00000    
       5928                1.00000    
       5929                1.00000    
       5930                1.00000    
       5931                1.00000    
       5932                1.00000    
       5933                1.00000    
       5934                1.00000    
       5935                1.00000    
       5936                1.00000    
       5937                1.00000    
       5938                1.00000    
       5939                1.00000    
       5940                1.00000    
       5941                1.00000    
       5942                1.00000    
       5943                1.00000    
       5944                1.00000    
       5945                1.00000    
       5946                1.00000    
       5947                1.00000    
       5948                1.00000    
       5949                1.00000    
       5950                1.00000    
       5951                1.00000    
       5952                1.00000    
       5953                1.00000    
       5954                1.00000    
       5955                1.00000    
       5956                1.00000    
       5957                1.00000    
       5958                1.00000    
       5959                1.00000    
       5960                1.00000    
       5961                1.00000    
       5962                1.00000    
       5963                1.00000    
       5964                1.00000    
       5965                1.00000    
       5966                1.00000    
       5967                1.00000    
       5968                1.00000    
       5969                1.00000    
       5970                1.00000    
       5971                1.00000    
       5972                1.00000    
       5973                1.00000    
       5974                1.00000    
       5975                1.00000    
       5976                1.00000    
       5977                1.00000    
       5978                1.00000    
       5979                1.00000    
       5980                1.00000    
       5981                1.00000    
       5982                1.00000    
       5983                1.00000    
       5984                1.00000    
       5985                1.00000    
       5986                1.00000    
       5987                1.00000    
       5988                1.00000    
       5989                1.00000    
       5990                1.00000    
       5991                1.00000    
       5992                1.00000    
       5993                1.00000    
       5994                1.00000    
       5995                1.00000    
       5996                1.00000    
       5997                1.00000    
       5998                1.00000    
       5999                1.00000    
       6000                1.00000    
       6001                1.00000    
       6002                1.00000    
       6003                1.00000    
       6004                1.00000    
       6005                1.00000    
       6006                1.00000    
       6007                1.00000    
       6008                1.00000    
       6009                1.00000    
       6010                1.00000    
       6011                1.00000    
       6012                1.00000    
       6013                1.00000    
       6014                1.00000    
       6015                1.00000    
       6016                1.00000    
       6017                1.00000    
       6018                1.00000    
       6019                1.00000    
       6020                1.00000    
       6021                1.00000    
       6022                1.00000    
       6023                1.00000    
       6024                1.00000    
       6025                1.00000    
       6026                1.00000    
       6027                1.00000    
       6028                1.00000    
       6029                1.00000    
       6030                1.00000    
       6031                1.00000    
       6032                1.00000    
       6033                1.00000    
       6034                1.00000    
       6035                1.00000    
       6036                1.00000    
       6037                1.00000    
       6038                1.00000    
       6039                1.00000    
       6040                1.00000    
       6041                1.00000    
       6042                1.00000    
       6043                1.00000    
       6044                1.00000    
       6045                1.00000    
       6046                1.00000    
       6047                1.00000    
       6048                1.00000    
       6049                1.00000    
       6050                1.00000    
       6051                1.00000    
       6052                1.00000    
       6053                1.00000    
       6054                1.00000    
       6055                1.00000    
       6056                1.00000    
       6057                1.00000    
       6058                1.00000    
       6059                1.00000    
       6060                1.00000    
       6061                1.00000    
       6062                1.00000    
       6063                1.00000    
       6064                1.00000    
       6065                1.00000    
       6066                1.00000    
       6067                1.00000    
       6068                1.00000    
       6069                1.00000    
       6070                1.00000    
       6071                1.00000    
       6072                1.00000    
       6073                1.00000    
       6074                1.00000    
       6075                1.00000    
       6076                1.00000    
       6077                1.00000    
       6078                1.00000    
       6079                1.00000    
       6080                1.00000    
       6081                1.00000    
       6082                1.00000    
       6083                1.00000    
       6084                1.00000    
       6085                1.00000    
       6086                1.00000    
       6087                1.00000    
       6088                1.00000    
       6089                1.00000    
       6090                1.00000    
       6091                1.00000    
       6092                1.00000    
       6093                1.00000    
       6094                1.00000    
       6095                1.00000    
       6096                1.00000    
       6097                1.00000    
       6098                1.00000    
       6099                1.00000    
       6100                1.00000    
       6101                1.00000    
       6102                1.00000    
       6103                1.00000    
       6104                1.00000    
       6105                1.00000    
       6106                1.00000    
       6107                1.00000    
       6108                1.00000    
       6109                1.00000    
       6110                1.00000    
       6111                1.00000    
       6112                1.00000    
       6113                1.00000    
       6114                1.00000    
       6115                1.00000    
       6116                1.00000    
       6117                1.00000    
       6118                1.00000    
       6119                1.00000    
       6120                1.00000    
       6121                1.00000    
       6122                1.00000    
       6123                1.00000    
       6124                1.00000    
       6125                1.00000    
       6126                1.00000    
       6127                1.00000    
       6128                1.00000    
       6129                1.00000    
       6130                1.00000    
       6131                1.00000    
       6132                1.00000    
       6133                1.00000    
       6134                1.00000    
       6135                1.00000    
       6136                1.00000    
       6137                1.00000    
       6138                1.00000    
       6139                1.00000    
       6140                1.00000    
       6141                1.00000    
       6142                1.00000    
       6143                1.00000    
       6144                1.00000    
       6145                1.00000    
       6146                1.00000    
       6147                1.00000    
       6148                1.00000    
       6149                1.00000    
       6150                1.00000    
       6151                1.00000    
       6152                1.00000    
       6153                1.00000    
       6154                1.00000    
       6155                1.00000    
       6156                1.00000    
       6157                1.00000    
       6158                1.00000    
       6159                1.00000    
       6160                1.00000    
       6161                1.00000    
       6162                1.00000    
       6163                1.00000    
       6164                1.00000    
       6165                1.00000    
       6166                1.00000    
       6167                1.00000    
       6168                1.00000    
       6169                1.00000    
       6170                1.00000    
       6171                1.00000    
       6172                1.00000    
       6173                1.00000    
       6174                1.00000    
       6175                1.00000    
       6176                1.00000    
       6177                1.00000    
       6178                1.00000    
       6179                1.00000    
       6180                1.00000    
       6181                1.00000    
       6182                1.00000    
       6183                1.00000    
       6184                1.00000    
       6185                1.00000    
       6186                1.00000    
       6187                1.00000    
       6188                1.00000    
       6189                1.00000    
       6190                1.00000    
       6191                1.00000    
       6192                1.00000    
       6193                1.00000    
       6194                1.00000    
       6195                1.00000    
       6196                1.00000    
       6197                1.00000    
       6198                1.00000    
       6199                1.00000    
       6200                1.00000    
       6201                1.00000    
       6202                1.00000    
       6203                1.00000    
       6204                1.00000    
       6205                1.00000    
       6206                1.00000    
       6207                1.00000    
       6208                1.00000    
       6209                1.00000    
       6210                1.00000    
       6211                1.00000    
       6212                1.00000    
       6213                1.00000    
       6214                1.00000    
       6215                1.00000    
       6216                1.00000    
       6217                1.00000    
       6218                1.00000    
       6219                1.00000    
       6220                1.00000    
       6221                1.00000    
       6222                1.00000    
       6223                1.00000    
       6224                1.00000    
       6225                1.00000    
       6226                1.00000    
       6227                1.00000    
       6228                1.00000    
       6229                1.00000    
       6230                1.00000    
       6231                1.00000    
       6232                1.00000    
       6233                1.00000    
       6234                1.00000    
       6235                1.00000    
       6236                1.00000    
       6237                1.00000    
       6238                1.00000    
       6239                1.00000    
       6240                1.00000    
       6241                1.00000    
       6242                1.00000    
       6243                1.00000    
       6244                1.00000    
       6245                1.00000    
       6246                1.00000    
       6247                1.00000    
       6248                1.00000    
       6249                1.00000    
       6250                1.00000    
       6251                1.00000    
       6252                1.00000    
       6253                1.00000    
       6254                1.00000    
       6255                1.00000    
       6256                1.00000    
       6257                1.00000    
       6258                1.00000    
       6259                1.00000    
       6260                1.00000    
       6261                1.00000    
       6262                1.00000    
       6263                1.00000    
       6264                1.00000    
       6265                1.00000    
       6266                1.00000    
       6267                1.00000    
       6268                1.00000    
       6269                1.00000    
       6270                1.00000    
       6271                1.00000    
       6272                1.00000    
       6273                1.00000    
       6274                1.00000    
       6275                1.00000    
       6276                1.00000    
       6277                1.00000    
       6278                1.00000    
       6279                1.00000    
       6280                1.00000    
       6281                1.00000    
       6282                1.00000    
       6283                1.00000    
       6284                1.00000    
       6285                1.00000    
       6286                1.00000    
       6287                1.00000    
       6288                1.00000    
       6289                1.00000    
       6290                1.00000    
       6291                1.00000    
       6292                1.00000    
       6293                1.00000    
       6294                1.00000    
       6295                1.00000    
       6296                1.00000    
       6297                1.00000    
       6298                1.00000    
       6299                1.00000    
       6300                1.00000    
       6301                1.00000    
       6302                1.00000    
       6303                1.00000    
       6304                1.00000    
       6305                1.00000    
       6306                1.00000    
       6307                1.00000    
       6308                1.00000    
       6309                1.00000    
       6310                1.00000    
       6311                1.00000    
       6312                1.00000    
       6313                1.00000    
       6314                1.00000    
       6315                1.00000    
       6316                1.00000    
       6317                1.00000    
       6318                1.00000    
       6319                1.00000    
       6320                1.00000    
       6321                1.00000    
       6322                1.00000    
       6323                1.00000    
       6324                1.00000    
       6325                1.00000    
       6326                1.00000    
       6327                1.00000    
       6328                1.00000    
       6329                1.00000    
       6330                1.00000    
       6331                1.00000    
       6332                1.00000    
       6333                1.00000    
       6334                1.00000    
       6335                1.00000    
       6336                1.00000    
       6337                1.00000    
       6338                1.00000    
       6339                1.00000    
       6340                1.00000    
       6341                1.00000    
       6342                1.00000    
       6343                1.00000    
       6344                1.00000    
       6345                1.00000    
       6346                1.00000    
       6347                1.00000    
       6348                1.00000    
       6349                1.00000    
       6350                1.00000    
       6351                1.00000    
       6352                1.00000    
       6353                1.00000    
       6354                1.00000    
       6355                1.00000    
       6356                1.00000    
       6357                1.00000    
       6358                1.00000    
       6359                1.00000    
       6360                1.00000    
       6361                1.00000    
       6362                1.00000    
       6363                1.00000    
       6364                1.00000    
       6365                1.00000    
       6366                1.00000    
       6367                1.00000    
       6368                1.00000    
       6369                1.00000    
       6370                1.00000    
       6371                1.00000    
       6372                1.00000    
       6373                1.00000    
       6374                1.00000    
       6375                1.00000    
       6376                1.00000    
       6377                1.00000    
       6378                1.00000    
       6379                1.00000    
       6380                1.00000    
       6381                1.00000    
       6382                1.00000    
       6383                1.00000    
       6384                1.00000    
       6385                1.00000    
       6386                1.00000    
       6387                1.00000    
       6388                1.00000    
       6389                1.00000    
       6390                1.00000    
       6391                1.00000    
       6392                1.00000    
       6393                1.00000    
       6394                1.00000    
       6395                1.00000    
       6396                1.00000    
       6397                1.00000    
       6398                1.00000    
       6399                1.00000    
       6400                1.00000    
       6401                1.00000    
       6402                1.00000    
       6403                1.00000    
       6404                1.00000    
       6405                1.00000    
       6406                1.00000    
       6407                1.00000    
       6408                1.00000    
       6409                1.00000    
       6410                1.00000    
       6411                1.00000    
       6412                1.00000    
       6413                1.00000    
       6414                1.00000    
       6415                1.00000    
       6416                1.00000    
       6417                1.00000    
       6418                1.00000    
       6419                1.00000    
       6420                1.00000    
       6421                1.00000    
       6422                1.00000    
       6423                1.00000    
       6424                1.00000    
       6425                1.00000    
       6426                1.00000    
       6427                1.00000    
       6428                1.00000    
       6429                1.00000    
       6430                1.00000    
       6431                1.00000    
       6432                1.00000    
       6433                1.00000    
       6434                1.00000    
       6435                1.00000    
       6436                1.00000    
       6437                1.00000    
       6438                1.00000    
       6439                1.00000    
       6440                1.00000    
       6441                1.00000    
       6442                1.00000    
       6443                1.00000    
       6444                1.00000    
       6445                1.00000    
       6446                1.00000    
       6447                1.00000    
       6448                1.00000    
       6449                1.00000    
       6450                1.00000    
       6451                1.00000    
       6452                1.00000    
       6453                1.00000    
       6454                1.00000    
       6455                1.00000    
       6456                1.00000    
       6457                1.00000    
       6458                1.00000    
       6459                1.00000    
       6460                1.00000    
       6461                1.00000    
       6462                1.00000    
       6463                1.00000    
       6464                1.00000    
       6465                1.00000    
       6466                1.00000    
       6467                1.00000    
       6468                1.00000    
       6469                1.00000    
       6470                1.00000    
       6471                1.00000    
       6472                1.00000    
       6473                1.00000    
       6474                1.00000    
       6475                1.00000    
       6476                1.00000    
       6477                1.00000    
       6478                1.00000    
       6479                1.00000    
       6480                1.00000    
       6481                1.00000    
       6482                1.00000    
       6483                1.00000    
       6484                1.00000    
       6485                1.00000    
       6486                1.00000    
       6487                1.00000    
       6488                1.00000    
       6489                1.00000    
       6490                1.00000    
       6491                1.00000    
       6492                1.00000    
       6493                1.00000    
       6494                1.00000    
       6495                1.00000    
       6496                1.00000    
       6497                1.00000    
       6498                1.00000    
       6499                1.00000    
       6500                1.00000    
       6501                1.00000    
       6502                1.00000    
       6503                1.00000    
       6504                1.00000    
       6505                1.00000    
       6506                1.00000    
       6507                1.00000    
       6508                1.00000    
       6509                1.00000    
       6510                1.00000    
       6511                1.00000    
       6512                1.00000    
       6513                1.00000    
       6514                1.00000    
       6515                1.00000    
       6516                1.00000    
       6517                1.00000    
       6518                1.00000    
       6519                1.00000    
       6520                1.00000    
       6521                1.00000    
       6522                1.00000    
       6523                1.00000    
       6524                1.00000    
       6525                1.00000    
       6526                1.00000    
       6527                1.00000    
       6528                1.00000    
       6529                1.00000    
       6530                1.00000    
       6531                1.00000    
       6532                1.00000    
       6533                1.00000    
       6534                1.00000    
       6535                1.00000    
       6536                1.00000    
       6537                1.00000    
       6538                1.00000    
       6539                1.00000    
       6540                1.00000    
       6541                1.00000    
       6542                1.00000    
       6543                1.00000    
       6544                1.00000    
       6545                1.00000    
       6546                1.00000    
       6547                1.00000    
       6548                1.00000    
       6549                1.00000    
       6550                1.00000    
       6551                1.00000    
       6552                1.00000    
       6553                1.00000    
       6554                1.00000    
       6555                1.00000    
       6556                1.00000    
       6557                1.00000    
       6558                1.00000    
       6559                1.00000    
       6560                1.00000    
       6561                1.00000    
       6562                1.00000    
       6563                1.00000    
       6564                1.00000    
       6565                1.00000    
       6566                1.00000    
       6567                1.00000    
       6568                1.00000    
       6569                1.00000    
       6570                1.00000    
       6571                1.00000    
       6572                1.00000    
       6573                1.00000    
       6574                1.00000    
       6575                1.00000    
       6576                1.00000    
       6577                1.00000    
       6578                1.00000    
       6579                1.00000    
       6580                1.00000    
       6581                1.00000    
       6582                1.00000    
       6583                1.00000    
       6584                1.00000    
       6585                1.00000    
       6586                1.00000    
       6587                1.00000    
       6588                1.00000    
       6589                1.00000    
       6590                1.00000    
       6591                1.00000    
       6592                1.00000    
       6593                1.00000    
       6594                1.00000    
       6595                1.00000    
       6596                1.00000    
       6597                1.00000    
       6598                1.00000    
       6599                1.00000    
       6600                1.00000    
       6601                1.00000    
       6602                1.00000    
       6603                1.00000    
       6604                1.00000    
       6605                1.00000    
       6606                1.00000    
       6607                1.00000    
       6608                1.00000    
       6609                1.00000    
       6610                1.00000    
       6611                1.00000    
       6612                1.00000    
       6613                1.00000    
       6614                1.00000    
       6615                1.00000    
       6616                1.00000    
       6617                1.00000    
       6618                1.00000    
       6619                1.00000    
       6620                1.00000    
       6621                1.00000    
       6622                1.00000    
       6623                1.00000    
       6624                1.00000    
       6625                1.00000    
       6626                1.00000    
       6627                1.00000    
       6628                1.00000    
       6629                1.00000    
       6630                1.00000    
       6631                1.00000    
       6632                1.00000    
       6633                1.00000    
       6634                1.00000    
       6635                1.00000    
       6636                1.00000    
       6637                1.00000    
       6638                1.00000    
       6639                1.00000    
       6640                1.00000    
       6641                1.00000    
       6642                1.00000    
       6643                1.00000    
       6644                1.00000    
       6645                1.00000    
       6646                1.00000    
       6647                1.00000    
       6648                1.00000    
       6649                1.00000    
       6650                1.00000    
       6651                1.00000    
       6652                1.00000    
       6653                1.00000    
       6654                1.00000    
       6655                1.00000    
       6656                1.00000    
       6657                1.00000    
       6658                1.00000    
       6659                1.00000    
       6660                1.00000    
       6661                1.00000    
       6662                1.00000    
       6663                1.00000    
       6664                1.00000    
       6665                1.00000    
       6666                1.00000    
       6667                1.00000    
       6668                1.00000    
       6669                1.00000    
       6670                1.00000    
       6671                1.00000    
       6672                1.00000    
       6673                1.00000    
       6674                1.00000    
       6675                1.00000    
       6676                1.00000    
       6677                1.00000    
       6678                1.00000    
       6679                1.00000    
       6680                1.00000    
       6681                1.00000    
       6682                1.00000    
       6683                1.00000    
       6684                1.00000    
       6685                1.00000    
       6686                1.00000    
       6687                1.00000    
       6688                1.00000    
       6689                1.00000    
       6690                1.00000    
       6691                1.00000    
       6692                1.00000    
       6693                1.00000    
       6694                1.00000    
       6695                1.00000    
       6696                1.00000    
       6697                1.00000    
       6698                1.00000    
       6699                1.00000    
       6700                1.00000    
       6701                1.00000    
       6702                1.00000    
       6703                1.00000    
       6704                1.00000    
       6705                1.00000    
       6706                1.00000    
       6707                1.00000    
       6708                1.00000    
       6709                1.00000    
       6710                1.00000    
       6711                1.00000    
       6712                1.00000    
       6713                1.00000    
       6714                1.00000    
       6715                1.00000    
       6716                1.00000    
       6717                1.00000    
       6718                1.00000    
       6719                1.00000    
       6720                1.00000    
       6721                1.00000    
       6722                1.00000    
       6723                1.00000    
       6724                1.00000    
       6725                1.00000    
       6726                1.00000    
       6727                1.00000    
       6728                1.00000    
       6729                1.00000    
       6730                1.00000    
       6731                1.00000    
       6732                1.00000    
       6733                1.00000    
       6734                1.00000    
       6735                1.00000    
       6736                1.00000    
       6737                1.00000    
       6738                1.00000    
       6739                1.00000    
       6740                1.00000    
       6741                1.00000    
       6742                1.00000    
       6743                1.00000    
       6744                1.00000    
       6745                1.00000    
       6746                1.00000    
       6747                1.00000    
       6748                1.00000    
       6749                1.00000    
       6750                1.00000    
       6751                1.00000    
       6752                1.00000    
       6753                1.00000    
       6754                1.00000    
       6755                1.00000    
       6756                1.00000    
       6757                1.00000    
       6758                1.00000    
       6759                1.00000    
       6760                1.00000    
       6761                1.00000    
       6762                1.00000    
       6763                1.00000    
       6764                1.00000    
       6765                1.00000    
       6766                1.00000    
       6767                1.00000    
       6768                1.00000    
       6769                1.00000    
       6770                1.00000    
       6771                1.00000    
       6772                1.00000    
       6773                1.00000    
       6774                1.00000    
       6775                1.00000    
       6776                1.00000    
       6777                1.00000    
       6778                1.00000    
       6779                1.00000    
       6780                1.00000    
       6781                1.00000    
       6782                1.00000    
       6783                1.00000    
       6784                1.00000    
       6785                1.00000    
       6786                1.00000    
       6787                1.00000    
       6788                1.00000    
       6789                1.00000    
       6790                1.00000    
       6791                1.00000    
       6792                1.00000    
       6793                1.00000    
       6794                1.00000    
       6795                1.00000    
       6796                1.00000    
       6797                1.00000    
       6798                1.00000    
       6799                1.00000    
       6800                1.00000    
       6801                1.00000    
       6802                1.00000    
       6803                1.00000    
       6804                1.00000    
       6805                1.00000    
       6806                1.00000    
       6807                1.00000    
       6808                1.00000    
       6809                1.00000    
       6810                1.00000    
       6811                1.00000    
       6812                1.00000    
       6813                1.00000    
       6814                1.00000    
       6815                1.00000    
       6816                1.00000    
       6817                1.00000    
       6818                1.00000    
       6819                1.00000    
       6820                1.00000    
       6821                1.00000    
       6822                1.00000    
       6823                1.00000    
       6824                1.00000    
       6825                1.00000    
       6826                1.00000    
       6827                1.00000    
       6828                1.00000    
       6829                1.00000    
       6830                1.00000    
       6831                1.00000    
       6832                1.00000    
       6833                1.00000    
       6834                1.00000    
       6835                1.00000    
       6836                1.00000    
       6837                1.00000    
       6838                1.00000    
       6839                1.00000    
       6840                1.00000    
       6841                1.00000    
       6842                1.00000    
       6843                1.00000    
       6844                1.00000    
       6845                1.00000    
       6846                1.00000    
       6847                1.00000    
       6848                1.00000    
       6849                1.00000    
       6850                1.00000    
       6851                1.00000    
       6852                1.00000    
       6853                1.00000    
       6854                1.00000    
       6855                1.00000    
       6856                1.00000    
       6857                1.00000    
       6858                1.00000    
       6859                1.00000    
       6860                1.00000    
       6861                1.00000    
       6862                1.00000    
       6863                1.00000    
       6864                1.00000    
       6865                1.00000    
       6866                1.00000    
       6867                1.00000    
       6868                1.00000    
       6869                1.00000    
       6870                1.00000    
       6871                1.00000    
       6872                1.00000    
       6873                1.00000    
       6874                1.00000    
       6875                1.00000    
       6876                1.00000    
       6877                1.00000    
       6878                1.00000    
       6879                1.00000    
       6880                1.00000    
       6881                1.00000    
       6882                1.00000    
       6883                1.00000    
       6884                1.00000    
       6885                1.00000    
       6886                1.00000    
       6887                1.00000    
       6888                1.00000    
       6889                1.00000    
       6890                1.00000    
       6891                1.00000    
       6892                1.00000    
       6893                1.00000    
       6894                1.00000    
       6895                1.00000    
       6896                1.00000    
       6897                1.00000    
       6898                1.00000    
       6899                1.00000    
       6900                1.00000    
       6901                1.00000    
       6902                1.00000    
       6903                1.00000    
       6904                1.00000    
       6905                1.00000    
       6906                1.00000    
       6907                1.00000    
       6908                1.00000    
       6909                1.00000    
       6910                1.00000    
       6911                1.00000    
       6912                1.00000    
       6913                1.00000    
       6914                1.00000    
       6915                1.00000    
       6916                1.00000    
       6917                1.00000    
       6918                1.00000    
       6919                1.00000    
       6920                1.00000    
       6921                1.00000    
       6922                1.00000    
       6923                1.00000    
       6924                1.00000    
       6925                1.00000    
       6926                1.00000    
       6927                1.00000    
       6928                1.00000    
       6929                1.00000    
       6930                1.00000    
       6931                1.00000    
       6932                1.00000    
       6933                1.00000    
       6934                1.00000    
       6935                1.00000    
       6936                1.00000    
       6937                1.00000    
       6938                1.00000    
       6939                1.00000    
       6940                1.00000    
       6941                1.00000    
       6942                1.00000    
       6943                1.00000    
       6944                1.00000    
       6945                1.00000    
       6946                1.00000    
       6947                1.00000    
       6948                1.00000    
       6949                1.00000    
       6950                1.00000    
       6951                1.00000    
       6952                1.00000    
       6953                1.00000    
       6954                1.00000    
       6955                1.00000    
       6956                1.00000    
       6957                1.00000    
       6958                1.00000    
       6959                1.00000    
       6960                1.00000    
       6961                1.00000    
       6962                1.00000    
       6963                1.00000    
       6964                1.00000    
       6965                1.00000    
       6966                1.00000    
       6967                1.00000    
       6968                1.00000    
       6969                1.00000    
       6970                1.00000    
       6971                1.00000    
       6972                1.00000    
       6973                1.00000    
       6974                1.00000    
       6975                1.00000    
       6976                1.00000    
       6977                1.00000    
       6978                1.00000    
       6979                1.00000    
       6980                1.00000    
       6981                1.00000    
       6982                1.00000    
       6983                1.00000    
       6984                1.00000    
       6985                1.00000    
       6986                1.00000    
       6987                1.00000    
       6988                1.00000    
       6989                1.00000    
       6990                1.00000    
       6991                1.00000    
       6992                1.00000    
       6993                1.00000    
       6994                1.00000    
       6995                1.00000    
       6996                1.00000    
       6997                1.00000    
       6998                1.00000    
       6999                1.00000    
       7000                1.00000    
       7001                1.00000    
       7002                1.00000    
       7003                1.00000    
       7004                1.00000    
       7005                1.00000    
       7006                1.00000    
       7007                1.00000    
       7008                1.00000    
       7009                1.00000    
       7010                1.00000    
       7011                1.00000    
       7012                1.00000    
       7013                1.00000    
       7014                1.00000    
       7015                1.00000    
       7016                1.00000    
       7017                1.00000    
       7018                1.00000    
       7019                1.00000    
       7020                1.00000    
       7021                1.00000    
       7022                1.00000    
       7023                1.00000    
       7024                1.00000    
       7025                1.00000    
       7026                1.00000    
       7027                1.00000    
       7028                1.00000    
       7029                1.00000    
       7030                1.00000    
       7031                1.00000    
       7032                1.00000    
       7033                1.00000    
       7034                1.00000    
       7035                1.00000    
       7036                1.00000    
       7037                1.00000    
       7038                1.00000    
       7039                1.00000    
       7040                1.00000    
       7041                1.00000    
       7042                1.00000    
       7043                1.00000    
       7044                1.00000    
       7045                1.00000    
       7046                1.00000    
       7047                1.00000    
       7048                1.00000    
       7049                1.00000    
       7050                1.00000    
       7051                1.00000    
       7052                1.00000    
       7053                1.00000    
       7054                1.00000    
       7055                1.00000    
       7056                1.00000    
       7057                1.00000    
       7058                1.00000    
       7059                1.00000    
       7060                1.00000    
       7061                1.00000    
       7062                1.00000    
       7063                1.00000    
       7064                1.00000    
       7065                1.00000    
       7066                1.00000    
       7067                1.00000    
       7068                1.00000    
       7069                1.00000    
       7070                1.00000    
       7071                1.00000    
       7072                1.00000    
       7073                1.00000    
       7074                1.00000    
       7075                1.00000    
       7076                1.00000    
       7077                1.00000    
       7078                1.00000    
       7079                1.00000    
       7080                1.00000    
       7081                1.00000    
       7082                1.00000    
       7083                1.00000    
       7084                1.00000    
       7085                1.00000    
       7086                1.00000    
       7087                1.00000    
       7088                1.00000    
       7089                1.00000    
       7090                1.00000    
       7091                1.00000    
       7092                1.00000    
       7093                1.00000    
       7094                1.00000    
       7095                1.00000    
       7096                1.00000    
       7097                1.00000    
       7098                1.00000    
       7099                1.00000    
       7100                1.00000    
       7101                1.00000    
       7102                1.00000    
       7103                1.00000    
       7104                1.00000    
       7105                1.00000    
       7106                1.00000    
       7107                1.00000    
       7108                1.00000    
       7109                1.00000    
       7110                1.00000    
       7111                1.00000    
       7112                1.00000    
       7113                1.00000    
       7114                1.00000    
       7115                1.00000    
       7116                1.00000    
       7117                1.00000    
       7118                1.00000    
       7119                1.00000    
       7120                1.00000    
       7121                1.00000    
       7122                1.00000    
       7123                1.00000    
       7124                1.00000    
       7125                1.00000    
       7126                1.00000    
       7127                1.00000    
       7128                1.00000    
       7129                1.00000    
       7130                1.00000    
       7131                1.00000    
       7132                1.00000    
       7133                1.00000    
       7134                1.00000    
       7135                1.00000    
       7136                1.00000    
       7137                1.00000    
       7138                1.00000    
       7139                1.00000    
       7140                1.00000    
       7141                1.00000    
       7142                1.00000    
       7143                1.00000    
       7144                1.00000    
       7145                1.00000    
       7146                1.00000    
       7147                1.00000    
       7148                1.00000    
       7149                1.00000    
       7150                1.00000    
       7151                1.00000    
       7152                1.00000    
       7153                1.00000    
       7154                1.00000    
       7155                1.00000    
       7156                1.00000    
       7157                1.00000    
       7158                1.00000    
       7159                1.00000    
       7160                1.00000    
       7161                1.00000    
       7162                1.00000    
       7163                1.00000    
       7164                1.00000    
       7165                1.00000    
       7166                1.00000    
       7167                1.00000    
       7168                1.00000    
       7169                1.00000    
       7170                1.00000    
       7171                1.00000    
       7172                1.00000    
       7173                1.00000    
       7174                1.00000    
       7175                1.00000    
       7176                1.00000    
       7177                1.00000    
       7178                1.00000    
       7179                1.00000    
       7180                1.00000    
       7181                1.00000    
       7182                1.00000    
       7183                1.00000    
       7184                1.00000    
       7185                1.00000    
       7186                1.00000    
       7187                1.00000    
       7188                1.00000    
       7189                1.00000    
       7190                1.00000    
       7191                1.00000    
       7192                1.00000    
       7193                1.00000    
       7194                1.00000    
       7195                1.00000    
       7196                1.00000    
       7197                1.00000    
       7198                1.00000    
       7199                1.00000    
       7200                1.00000    
       7201                1.00000    
       7202                1.00000    
       7203                1.00000    
       7204                1.00000    
       7205                1.00000    
       7206                1.00000    
       7207                1.00000    
       7208                1.00000    
       7209                1.00000    
       7210                1.00000    
       7211                1.00000    
       7212                1.00000    
       7213                1.00000    
       7214                1.00000    
       7215                1.00000    
       7216                1.00000    
       7217                1.00000    
       7218                1.00000    
       7219                1.00000    
       7220                1.00000    
       7221                1.00000    
       7222                1.00000    
       7223                1.00000    
       7224                1.00000    
       7225                1.00000    
       7226                1.00000    
       7227                1.00000    
       7228                1.00000    
       7229                1.00000    
       7230                1.00000    
       7231                1.00000    
       7232                1.00000    
       7233                1.00000    
       7234                1.00000    
       7235                1.00000    
       7236                1.00000    
       7237                1.00000    
       7238                1.00000    
       7239                1.00000    
       7240                1.00000    
       7241                1.00000    
       7242                1.00000    
       7243                1.00000    
       7244                1.00000    
       7245                1.00000    
       7246                1.00000    
       7247                1.00000    
       7248                1.00000    
       7249                1.00000    
       7250                1.00000    
       7251                1.00000    
       7252                1.00000    
       7253                1.00000    
       7254                1.00000    
       7255                1.00000    
       7256                1.00000    
       7257                1.00000    
       7258                1.00000    
       7259                1.00000    
       7260                1.00000    
       7261                1.00000    
       7262                1.00000    
       7263                1.00000    
       7264                1.00000    
       7265                1.00000    
       7266                1.00000    
       7267                1.00000    
       7268                1.00000    
       7269                1.00000    
       7270                1.00000    
       7271                1.00000    
       7272                1.00000    
       7273                1.00000    
       7274                1.00000    
       7275                1.00000    
       7276                1.00000    
       7277                1.00000    
       7278                1.00000    
       7279                1.00000    
       7280                1.00000    
       7281                1.00000    
       7282                1.00000    
       7283                1.00000    
       7284                1.00000    
       7285                1.00000    
       7286                1.00000    
       7287                1.00000    
       7288                1.00000    
       7289                1.00000    
       7290                1.00000    
       7291                1.00000    
       7292                1.00000    
       7293                1.00000    
       7294                1.00000    
       7295                1.00000    
       7296                1.00000    
       7297                1.00000    
       7298                1.00000    
       7299                1.00000    
       7300                1.00000    
       7301                1.00000    
       7302                1.00000    
       7303                1.00000    
       7304                1.00000    
       7305                1.00000    
       7306                1.00000    
       7307                1.00000    
       7308                1.00000    
       7309                1.00000    
       7310                1.00000    
       7311                1.00000    
       7312                1.00000    
       7313                1.00000    
       7314                1.00000    
       7315                1.00000    
       7316                1.00000    
       7317                1.00000    
       7318                1.00000    
       7319                1.00000    
       7320                1.00000    
       7321                1.00000    
       7322                1.00000    
       7323                1.00000    
       7324                1.00000    
       7325                1.00000    
       7326                1.00000    
       7327                1.00000    
       7328                1.00000    
       7329                1.00000    
       7330                1.00000    
       7331                1.00000    
       7332                1.00000    
       7333                1.00000    
       7334                1.00000    
       7335                1.00000    
       7336                1.00000    
       7337                1.00000    
       7338                1.00000    
       7339                1.00000    
       7340                1.00000    
       7341                1.00000    
       7342                1.00000    
       7343                1.00000    
       7344                1.00000    
       7345                1.00000    
       7346                1.00000    
       7347                1.00000    
       7348                1.00000    
       7349                1.00000    
       7350                1.00000    
       7351                1.00000    
       7352                1.00000    
       7353                1.00000    
       7354                1.00000    
       7355                1.00000    
       7356                1.00000    
       7357                1.00000    
       7358                1.00000    
       7359                1.00000    
       7360                1.00000    
       7361                1.00000    
       7362                1.00000    
       7363                1.00000    
       7364                1.00000    
       7365                1.00000    
       7366                1.00000    
       7367                1.00000    
       7368                1.00000    
       7369                1.00000    
       7370                1.00000    
       7371                1.00000    
       7372                1.00000    
       7373                1.00000    
       7374                1.00000    
       7375                1.00000    
       7376                1.00000    
       7377                1.00000    
       7378                1.00000    
       7379                1.00000    
       7380                1.00000    
       7381                1.00000    
       7382                1.00000    
       7383                1.00000    
       7384                1.00000    
       7385                1.00000    
       7386                1.00000    
       7387                1.00000    
       7388                1.00000    
       7389                1.00000    
       7390                1.00000    
       7391                1.00000    
       7392                1.00000    
       7393                1.00000    
       7394                1.00000    
       7395                1.00000    
       7396                1.00000    
       7397                1.00000    
       7398                1.00000    
       7399                1.00000    
       7400                1.00000    
       7401                1.00000    
       7402                1.00000    
       7403                1.00000    
       7404                1.00000    
       7405                1.00000    
       7406                1.00000    
       7407                1.00000    
       7408                1.00000    
       7409                1.00000    
       7410                1.00000    
       7411                1.00000    
       7412                1.00000    
       7413                1.00000    
       7414                1.00000    
       7415                1.00000    
       7416                1.00000    
       7417                1.00000    
       7418                1.00000    
       7419                1.00000    
       7420                1.00000    
       7421                1.00000    
       7422                1.00000    
       7423                1.00000    
       7424                1.00000    
       7425                1.00000    
       7426                1.00000    
       7427                1.00000    
       7428                1.00000    
       7429                1.00000    
       7430                1.00000    
       7431                1.00000    
       7432                1.00000    
       7433                1.00000    
       7434                1.00000    
       7435                1.00000    
       7436                1.00000    
       7437                1.00000    
       7438                1.00000    
       7439                1.00000    
       7440                1.00000    
       7441                1.00000    
       7442                1.00000    
       7443                1.00000    
       7444                1.00000    
       7445                1.00000    
       7446                1.00000    
       7447                1.00000    
       7448                1.00000    
       7449                1.00000    
       7450                1.00000    
       7451                1.00000    
       7452                1.00000    
       7453                1.00000    
       7454                1.00000    
       7455                1.00000    
       7456                1.00000    
       7457                1.00000    
       7458                1.00000    
       7459                1.00000    
       7460                1.00000    
       7461                1.00000    
       7462                1.00000    
       7463                1.00000    
       7464                1.00000    
       7465                1.00000    
       7466                1.00000    
       7467                1.00000    
       7468                1.00000    
       7469                1.00000    
       7470                1.00000    
       7471                1.00000    
       7472                1.00000    
       7473                1.00000    
       7474                1.00000    
       7475                1.00000    
       7476                1.00000    
       7477                1.00000    
       7478                1.00000    
       7479                1.00000    
       7480                1.00000    
       7481                1.00000    
       7482                1.00000    
       7483                1.00000    
       7484                1.00000    
       7485                1.00000    
       7486                1.00000    
       7487                1.00000    
       7488                1.00000    
       7489                1.00000    
       7490                1.00000    
       7491                1.00000    
       7492                1.00000    
       7493                1.00000    
       7494                1.00000    
       7495                1.00000    
       7496                1.00000    
       7497                1.00000    
       7498                1.00000    
       7499                1.00000    
       7500                1.00000    
       7501                1.00000    
       7502                1.00000    
       7503                1.00000    
       7504                1.00000    
       7505                1.00000    
       7506                1.00000    
       7507                1.00000    
       7508                1.00000    
       7509                1.00000    
       7510                1.00000    
       7511                1.00000    
       7512                1.00000    
       7513                1.00000    
       7514                1.00000    
       7515                1.00000    
       7516                1.00000    
       7517                1.00000    
       7518                1.00000    
       7519                1.00000    
       7520                1.00000    
       7521                1.00000    
       7522                1.00000    
       7523                1.00000    
       7524                1.00000    
       7525                1.00000    
       7526                1.00000    
       7527                1.00000    
       7528                1.00000    
       7529                1.00000    
       7530                1.00000    
       7531                1.00000    
       7532                1.00000    
       7533                1.00000    
       7534                1.00000    
       7535                1.00000    
       7536                1.00000    
       7537                1.00000    
       7538                1.00000    
       7539                1.00000    
       7540                1.00000    
       7541                1.00000    
       7542                1.00000    
       7543                1.00000    
       7544                1.00000    
       7545                1.00000    
       7546                1.00000    
       7547                1.00000    
       7548                1.00000    
       7549                1.00000    
       7550                1.00000    
       7551                1.00000    
       7552                1.00000    
       7553                1.00000    
       7554                1.00000    
       7555                1.00000    
       7556                1.00000    
       7557                1.00000    
       7558                1.00000    
       7559                1.00000    
       7560                1.00000    
       7561                1.00000    
       7562                1.00000    
       7563                1.00000    
       7564                1.00000    
       7565                1.00000    
       7566                1.00000    
       7567                1.00000    
       7568                1.00000    
       7569                1.00000    
       7570                1.00000    
       7571                1.00000    
       7572                1.00000    
       7573                1.00000    
       7574                1.00000    
       7575                1.00000    
       7576                1.00000    
       7577                1.00000    
       7578                1.00000    
       7579                1.00000    
       7580                1.00000    
       7581                1.00000    
       7582                1.00000    
       7583                1.00000    
       7584                1.00000    
       7585                1.00000    
       7586                1.00000    
       7587                1.00000    
       7588                1.00000    
       7589                1.00000    
       7590                1.00000    
       7591                1.00000    
       7592                1.00000    
       7593                1.00000    
       7594                1.00000    
       7595                1.00000    
       7596                1.00000    
       7597                1.00000    
       7598                1.00000    
       7599                1.00000    
       7600                1.00000    
       7601                1.00000    
       7602                1.00000    
       7603                1.00000    
       7604                1.00000    
       7605                1.00000    
       7606                1.00000    
       7607                1.00000    
       7608                1.00000    
       7609                1.00000    
       7610                1.00000    
       7611                1.00000    
       7612                1.00000    
       7613                1.00000    
       7614                1.00000    
       7615                1.00000    
       7616                1.00000    
       7617                1.00000    
       7618                1.00000    
       7619                1.00000    
       7620                1.00000    
       7621                1.00000    
       7622                1.00000    
       7623                1.00000    
       7624                1.00000    
       7625                1.00000    
       7626                1.00000    
       7627                1.00000    
       7628                1.00000    
       7629                1.00000    
       7630                1.00000    
       7631                1.00000    
       7632                1.00000    
       7633                1.00000    
       7634                1.00000    
       7635                1.00000    
       7636                1.00000    
       7637                1.00000    
       7638                1.00000    
       7639                1.00000    
       7640                1.00000    
       7641                1.00000    
       7642                1.00000    
       7643                1.00000    
       7644                1.00000    
       7645                1.00000    
       7646                1.00000    
       7647                1.00000    
       7648                1.00000    
       7649                1.00000    
       7650                1.00000    
       7651                1.00000    
       7652                1.00000    
       7653                1.00000    
       7654                1.00000    
       7655                1.00000    
       7656                1.00000    
       7657                1.00000    
       7658                1.00000    
       7659                1.00000    
       7660                1.00000    
       7661                1.00000    
       7662                1.00000    
       7663                1.00000    
       7664                1.00000    
       7665                1.00000    
       7666                1.00000    
       7667                1.00000    
       7668                1.00000    
       7669                1.00000    
       7670                1.00000    
       7671                1.00000    
       7672                1.00000    
       7673                1.00000    
       7674                1.00000    
       7675                1.00000    
       7676                1.00000    
       7677                1.00000    
       7678                1.00000    
       7679                1.00000    
       7680                1.00000    
       7681                1.00000    
       7682                1.00000    
       7683                1.00000    
       7684                1.00000    
       7685                1.00000    
       7686                1.00000    
       7687                1.00000    
       7688                1.00000    
       7689                1.00000    
       7690                1.00000    
       7691                1.00000    
       7692                1.00000    
       7693                1.00000    
       7694                1.00000    
       7695                1.00000    
       7696                1.00000    
       7697                1.00000    
       7698                1.00000    
       7699                1.00000    
       7700                1.00000    
       7701                1.00000    
       7702                1.00000    
       7703                1.00000    
       7704                1.00000    
       7705                1.00000    
       7706                1.00000    
       7707                1.00000    
       7708                1.00000    
       7709                1.00000    
       7710                1.00000    
       7711                1.00000    
       7712                1.00000    
       7713                1.00000    
       7714                1.00000    
       7715                1.00000    
       7716                1.00000    
       7717                1.00000    
       7718                1.00000    
       7719                1.00000    
       7720                1.00000    
       7721                1.00000    
       7722                1.00000    
       7723                1.00000    
       7724                1.00000    
       7725                1.00000    
       7726                1.00000    
       7727                1.00000    
       7728                1.00000    
       7729                1.00000    
       7730                1.00000    
       7731                1.00000    
       7732                1.00000    
       7733                1.00000    
       7734                1.00000    
       7735                1.00000    
       7736                1.00000    
       7737                1.00000    
       7738                1.00000    
       7739                1.00000    
       7740                1.00000    
       7741                1.00000    
       7742                1.00000    
       7743                1.00000    
       7744                1.00000    
       7745                1.00000    
       7746                1.00000    
       7747                1.00000    
       7748                1.00000    
       7749                1.00000    
       7750                1.00000    
       7751                1.00000    
       7752                1.00000    
       7753                1.00000    
       7754                1.00000    
       7755                1.00000    
       7756                1.00000    
       7757                1.00000    
       7758                1.00000    
       7759                1.00000    
       7760                1.00000    
       7761                1.00000    
       7762                1.00000    
       7763                1.00000    
       7764                1.00000    
       7765                1.00000    
       7766                1.00000    
       7767                1.00000    
       7768                1.00000    
       7769                1.00000    
       7770                1.00000    
       7771                1.00000    
       7772                1.00000    
       7773                1.00000    
       7774                1.00000    
       7775                1.00000    
       7776                1.00000    
       7777                1.00000    
       7778                1.00000    
       7779                1.00000    
       7780                1.00000    
       7781                1.00000    
       7782                1.00000    
       7783                1.00000    
       7784                1.00000    
       7785                1.00000    
       7786                1.00000    
       7787                1.00000    
       7788                1.00000    
       7789                1.00000    
       7790                1.00000    
       7791                1.00000    
       7792                1.00000    
       7793                1.00000    
       7794                1.00000    
       7795                1.00000    
       7796                1.00000    
       7797                1.00000    
       7798                1.00000    
       7799                1.00000    
       7800                1.00000    
       7801                1.00000    
       7802                1.00000    
       7803                1.00000    
       7804                1.00000    
       7805                1.00000    
       7806                1.00000    
       7807                1.00000    
       7808                1.00000    
       7809                1.00000    
       7810                1.00000    
       7811                1.00000    
       7812                1.00000    
       7813                1.00000    
       7814                1.00000    
       7815                1.00000    
       7816                1.00000    
       7817                1.00000    
       7818                1.00000    
       7819                1.00000    
       7820                1.00000    
       7821                1.00000    
       7822                1.00000    
       7823                1.00000    
       7824                1.00000    
       7825                1.00000    
       7826                1.00000    
       7827                1.00000    
       7828                1.00000    
       7829                1.00000    
       7830                1.00000    
       7831                1.00000    
       7832                1.00000    
       7833                1.00000    
       7834                1.00000    
       7835                1.00000    
       7836                1.00000    
       7837                1.00000    
       7838                1.00000    
       7839                1.00000    
       7840                1.00000    
       7841                1.00000    
       7842                1.00000    
       7843                1.00000    
       7844                1.00000    
       7845                1.00000    
       7846                1.00000    
       7847                1.00000    
       7848                1.00000    
       7849                1.00000    
       7850                1.00000    
       7851                1.00000    
       7852                1.00000    
       7853                1.00000    
       7854                1.00000    
       7855                1.00000    
       7856                1.00000    
       7857                1.00000    
       7858                1.00000    
       7859                1.00000    
       7860                1.00000    
       7861                1.00000    
       7862                1.00000    
       7863                1.00000    
       7864                1.00000    
       7865                1.00000    
       7866                1.00000    
       7867                1.00000    
       7868                1.00000    
       7869                1.00000    
       7870                1.00000    
       7871                1.00000    
       7872                1.00000    
       7873                1.00000    
       7874                1.00000    
       7875                1.00000    
       7876                1.00000    
       7877                1.00000    
       7878                1.00000    
       7879                1.00000    
       7880                1.00000    
       7881                1.00000    
       7882                1.00000    
       7883                1.00000    
       7884                1.00000    
       7885                1.00000    
       7886                1.00000    
       7887                1.00000    
       7888                1.00000    
       7889                1.00000    
       7890                1.00000    
       7891                1.00000    
       7892                1.00000    
       7893                1.00000    
       7894                1.00000    
       7895                1.00000    
       7896                1.00000    
       7897                1.00000    
       7898                1.00000    
       7899                1.00000    
       7900                1.00000    
       7901                1.00000    
       7902                1.00000    
       7903                1.00000    
       7904                1.00000    
       7905                1.00000    
       7906                1.00000    
       7907                1.00000    
       7908                1.00000    
       7909                1.00000    
       7910                1.00000    
       7911                1.00000    
       7912                1.00000    
       7913                1.00000    
       7914                1.00000    
       7915                1.00000    
       7916                1.00000    
       7917                1.00000    
       7918                1.00000    
       7919                1.00000    
       7920                1.00000    
       7921                1.00000    
       7922                1.00000    
       7923                1.00000    
       7924                1.00000    
       7925                1.00000    
       7926                1.00000    
       7927                1.00000    
       7928                1.00000    
       7929                1.00000    
       7930                1.00000    
       7931                1.00000    
       7932                1.00000    
       7933                1.00000    
       7934                1.00000    
       7935                1.00000    
       7936                1.00000    
       7937                1.00000    
       7938                1.00000    
       7939                1.00000    
       7940                1.00000    
       7941                1.00000    
       7942                1.00000    
       7943                1.00000    
       7944                1.00000    
       7945                1.00000    
       7946                1.00000    
       7947                1.00000    
       7948                1.00000    
       7949                1.00000    
       7950                1.00000    
       7951                1.00000    
       7952                1.00000    
       7953                1.00000    
       7954                1.00000    
       7955                1.00000    
       7956                1.00000    
       7957                1.00000    
       7958                1.00000    
       7959                1.00000    
       7960                1.00000    
       7961                1.00000    
       7962                1.00000    
       7963                1.00000    
       7964                1.00000    
       7965                1.00000    
       7966                1.00000    
       7967                1.00000    
       7968                1.00000    
       7969                1.00000    
       7970                1.00000    
       7971                1.00000    
       7972                1.00000    
       7973                1.00000    
       7974                1.00000    
       7975                1.00000    
       7976                1.00000    
       7977                1.00000    
       7978                1.00000    
       7979                1.00000    
       7980                1.00000    
       7981                1.00000    
       7982                1.00000    
       7983                1.00000    
       7984                1.00000    
       7985                1.00000    
       7986                1.00000    
       7987                1.00000    
       7988                1.00000    
       7989                1.00000    
       7990                1.00000    
       7991                1.00000    
       7992                1.00000    
       7993                1.00000    
       7994                1.00000    
       7995                1.00000    
       7996                1.00000    
       7997                1.00000    
       7998                1.00000    
       7999                1.00000    
       8000                1.00000    
       8001                1.00000    
       8002                1.00000    
       8003                1.00000    
       8004                1.00000    
       8005                1.00000    
       8006                1.00000    
       8007                1.00000    
       8008                1.00000    
       8009                1.00000    
       8010                1.00000    
       8011                1.00000    
       8012                1.00000    
       8013                1.00000    
       8014                1.00000    
       8015                1.00000    
       8016                1.00000    
       8017                1.00000    
       8018                1.00000    
       8019                1.00000    
       8020                1.00000    
       8021                1.00000    
       8022                1.00000    
       8023                1.00000    
       8024                1.00000    
       8025                1.00000    
       8026                1.00000    
       8027                1.00000    
       8028                1.00000    
       8029                1.00000    
       8030                1.00000    
       8031                1.00000    
       8032                1.00000    
       8033                1.00000    
       8034                1.00000    
       8035                1.00000    
       8036                1.00000    
       8037                1.00000    
       8038                1.00000    
       8039                1.00000    
       8040                1.00000    
       8041                1.00000    
       8042                1.00000    
       8043                1.00000    
       8044                1.00000    
       8045                1.00000    
       8046                1.00000    
       8047                1.00000    
       8048                1.00000    
       8049                1.00000    
       8050                1.00000    
       8051                1.00000    
       8052                1.00000    
       8053                1.00000    
       8054                1.00000    
       8055                1.00000    
       8056                1.00000    
       8057                1.00000    
       8058                1.00000    
       8059                1.00000    
       8060                1.00000    
       8061                1.00000    
       8062                1.00000    
       8063                1.00000    
       8064                1.00000    
       8065                1.00000    
       8066                1.00000    
       8067                1.00000    
       8068                1.00000    
       8069                1.00000    
       8070                1.00000    
       8071                1.00000    
       8072                1.00000    
       8073                1.00000    
       8074                1.00000    
       8075                1.00000    
       8076                1.00000    
       8077                1.00000    
       8078                1.00000    
       8079                1.00000    
       8080                1.00000    
       8081                1.00000    
       8082                1.00000    
       8083                1.00000    
       8084                1.00000    
       8085                1.00000    
       8086                1.00000    
       8087                1.00000    
       8088                1.00000    
       8089                1.00000    
       8090                1.00000    
       8091                1.00000    
       8092                1.00000    
       8093                1.00000    
       8094                1.00000    
       8095                1.00000    
       8096                1.00000    
       8097                1.00000    
       8098                1.00000    
       8099                1.00000    
       8100                1.00000    
       8101                1.00000    
       8102                1.00000    
       8103                1.00000    
       8104                1.00000    
       8105                1.00000    
       8106                1.00000    
       8107                1.00000    
       8108                1.00000    
       8109                1.00000    
       8110                1.00000    
       8111                1.00000    
       8112                1.00000    
       8113                1.00000    
       8114                1.00000    
       8115                1.00000    
       8116                1.00000    
       8117                1.00000    
       8118                1.00000    
       8119                1.00000    
       8120                1.00000    
       8121                1.00000    
       8122                1.00000    
       8123                1.00000    
       8124                1.00000    
       8125                1.00000    
       8126                1.00000    
       8127                1.00000    
       8128                1.00000    
       8129                1.00000    
       8130                1.00000    
       8131                1.00000    
       8132                1.00000    
       8133                1.00000    
       8134                1.00000    
       8135                1.00000    
       8136                1.00000    
       8137                1.00000    
       8138                1.00000    
       8139                1.00000    
       8140                1.00000    
       8141                1.00000    
       8142                1.00000    
       8143                1.00000    
       8144                1.00000    
       8145                1.00000    
       8146                1.00000    
       8147                1.00000    
       8148                1.00000    
       8149                1.00000    
       8150                1.00000    
       8151                1.00000    
       8152                1.00000    
       8153                1.00000    
       8154                1.00000    
       8155                1.00000    
       8156                1.00000    
       8157                1.00000    
       8158                1.00000    
       8159                1.00000    
       8160                1.00000    
       8161                1.00000    
       8162                1.00000    
       8163                1.00000    
       8164                1.00000    
       8165                1.00000    
       8166                1.00000    
       8167                1.00000    
       8168                1.00000    
       8169                1.00000    
       8170                1.00000    
       8171                1.00000    
       8172                1.00000    
       8173                1.00000    
       8174                1.00000    
       8175                1.00000    
       8176                1.00000    
       8177                1.00000    
       8178                1.00000    
       8179                1.00000    
       8180                1.00000    
       8181                1.00000    
       8182                1.00000    
       8183                1.00000    
       8184                1.00000    
       8185                1.00000    
       8186                1.00000    
       8187                1.00000    
       8188                1.00000    
       8189                1.00000    
       8190                1.00000    
       8191                1.00000    
       8192                1.00000    
       8193                1.00000    
       8194                1.00000    
       8195                1.00000    
       8196                1.00000    
       8197                1.00000    
       8198                1.00000    
       8199                1.00000    
       8200                1.00000    
       8201                1.00000    
       8202                1.00000    
       8203                1.00000    
       8204                1.00000    
       8205                1.00000    
       8206                1.00000    
       8207                1.00000    
       8208                1.00000    
       8209                1.00000    
       8210                1.00000    
       8211                1.00000    
       8212                1.00000    
       8213                1.00000    
       8214                1.00000    
       8215                1.00000    
       8216                1.00000    
       8217                1.00000    
       8218                1.00000    
       8219                1.00000    
       8220                1.00000    
       8221                1.00000    
       8222                1.00000    
       8223                1.00000    
       8224                1.00000    
       8225                1.00000    
       8226                1.00000    
       8227                1.00000    
       8228                1.00000    
       8229                1.00000    
       8230                1.00000    
       8231                1.00000    
       8232                1.00000    
       8233                1.00000    
       8234                1.00000    
       8235                1.00000    
       8236                1.00000    
       8237                1.00000    
       8238                1.00000    
       8239                1.00000    
       8240                1.00000    
       8241                1.00000    
       8242                1.00000    
       8243                1.00000    
       8244                1.00000    
       8245                1.00000    
       8246                1.00000    
       8247                1.00000    
       8248                1.00000    
       8249                1.00000    
       8250                1.00000    
       8251                1.00000    
       8252                1.00000    
       8253                1.00000    
       8254                1.00000    
       8255                1.00000    
       8256                1.00000    
       8257                1.00000    
       8258                1.00000    
       8259                1.00000    
       8260                1.00000    
       8261                1.00000    
       8262                1.00000    
       8263                1.00000    
       8264                1.00000    
       8265                1.00000    
       8266                1.00000    
       8267                1.00000    
       8268                1.00000    
       8269                1.00000    
       8270                1.00000    
       8271                1.00000    
       8272                1.00000    
       8273                1.00000    
       8274                1.00000    
       8275                1.00000    
       8276                1.00000    
       8277                1.00000    
       8278                1.00000    
       8279                1.00000    
       8280                1.00000    
       8281                1.00000    
       8282                1.00000    
       8283                1.00000    
       8284                1.00000    
       8285                1.00000    
       8286                1.00000    
       8287                1.00000    
       8288                1.00000    
       8289                1.00000    
       8290                1.00000    
       8291                1.00000    
       8292                1.00000    
       8293                1.00000    
       8294                1.00000    
       8295                1.00000    
       8296                1.00000    
       8297                1.00000    
       8298                1.00000    
       8299                1.00000    
       8300                1.00000    
       8301                1.00000    
       8302                1.00000    
       8303                1.00000    
       8304                1.00000    
       8305                1.00000    
       8306                1.00000    
       8307                1.00000    
       8308                1.00000    
       8309                1.00000    
       8310                1.00000    
       8311                1.00000    
       8312                1.00000    
       8313                1.00000    
       8314                1.00000    
       8315                1.00000    
       8316                1.00000    
       8317                1.00000    
       8318                1.00000    
       8319                1.00000    
       8320                1.00000    
       8321                1.00000    
       8322                1.00000    
       8323                1.00000    
       8324                1.00000    
       8325                1.00000    
       8326                1.00000    
       8327                1.00000    
       8328                1.00000    
       8329                1.00000    
       8330                1.00000    
       8331                1.00000    
       8332                1.00000    
       8333                1.00000    
       8334                1.00000    
       8335                1.00000    
       8336                1.00000    
       8337                1.00000    
       8338                1.00000    
       8339                1.00000    
       8340                1.00000    
       8341                1.00000    
       8342                1.00000    
       8343                1.00000    
       8344                1.00000    
       8345                1.00000    
       8346                1.00000    
       8347                1.00000    
       8348                1.00000    
       8349                1.00000    
       8350                1.00000    
       8351                1.00000    
       8352                1.00000    
       8353                1.00000    
       8354                1.00000    
       8355                1.00000    
       8356                1.00000    
       8357                1.00000    
       8358                1.00000    
       8359                1.00000    
       8360                1.00000    
       8361                1.00000    
       8362                1.00000    
       8363                1.00000    
       8364                1.00000    
       8365                1.00000    
       8366                1.00000    
       8367                1.00000    
       8368                1.00000    
       8369                1.00000    
       8370                1.00000    
       8371                1.00000    
       8372                1.00000    
       8373                1.00000    
       8374                1.00000    
       8375                1.00000    
       8376                1.00000    
       8377                1.00000    
       8378                1.00000    
       8379                1.00000    
       8380                1.00000    
       8381                1.00000    
       8382                1.00000    
       8383                1.00000    
       8384                1.00000    
       8385                1.00000    
       8386                1.00000    
       8387                1.00000    
       8388                1.00000    
       8389                1.00000    
       8390                1.00000    
       8391                1.00000    
       8392                1.00000    
       8393                1.00000    
       8394                1.00000    
       8395                1.00000    
       8396                1.00000    
       8397                1.00000    
       8398                1.00000    
       8399                1.00000    
       8400                1.00000    
       8401                1.00000    
       8402                1.00000    
       8403                1.00000    
       8404                1.00000    
       8405                1.00000    
       8406                1.00000    
       8407                1.00000    
       8408                1.00000    
       8409                1.00000    
       8410                1.00000    
       8411                1.00000    
       8412                1.00000    
       8413                1.00000    
       8414                1.00000    
       8415                1.00000    
       8416                1.00000    
       8417                1.00000    
       8418                1.00000    
       8419                1.00000    
       8420                1.00000    
       8421                1.00000    
       8422                1.00000    
       8423                1.00000    
       8424                1.00000    
       8425                1.00000    
       8426                1.00000    
       8427                1.00000    
       8428                1.00000    
       8429                1.00000    
       8430                1.00000    
       8431                1.00000    
       8432                1.00000    
       8433                1.00000    
       8434                1.00000    
       8435                1.00000    
       8436                1.00000    
       8437                1.00000    
       8438                1.00000    
       8439                1.00000    
       8440                1.00000    
       8441                1.00000    
       8442                1.00000    
       8443                1.00000    
       8444                1.00000    
       8445                1.00000    
       8446                1.00000    
       8447                1.00000    
       8448                1.00000    
       8449                1.00000    
       8450                1.00000    
       8451                1.00000    
       8452                1.00000    
       8453                1.00000    
       8454                1.00000    
       8455                1.00000    
       8456                1.00000    
       8457                1.00000    
       8458                1.00000    
       8459                1.00000    
       8460                1.00000    
       8461                1.00000    
       8462                1.00000    
       8463                1.00000    
       8464                1.00000    
       8465                1.00000    
       8466                1.00000    
       8467                1.00000    
       8468                1.00000    
       8469                1.00000    
       8470                1.00000    
       8471                1.00000    
       8472                1.00000    
       8473                1.00000    
       8474                1.00000    
       8475                1.00000    
       8476                1.00000    
       8477                1.00000    
       8478                1.00000    
       8479                1.00000    
       8480                1.00000    
       8481                1.00000    
       8482                1.00000    
       8483                1.00000    
       8484                1.00000    
       8485                1.00000    
       8486                1.00000    
       8487                1.00000    
       8488                1.00000    
       8489                1.00000    
       8490                1.00000    
       8491                1.00000    
       8492                1.00000    
       8493                1.00000    
       8494                1.00000    
       8495                1.00000    
       8496                1.00000    
       8497                1.00000    
       8498                1.00000    
       8499                1.00000    
       8500                1.00000    
       8501                1.00000    
       8502                1.00000    
       8503                1.00000    
       8504                1.00000    
       8505                1.00000    
       8506                1.00000    
       8507                1.00000    
       8508                1.00000    
       8509                1.00000    
       8510                1.00000    
       8511                1.00000    
       8512                1.00000    
       8513                1.00000    
       8514                1.00000    
       8515                1.00000    
       8516                1.00000    
       8517                1.00000    
       8518                1.00000    
       8519                1.00000    
       8520                1.00000    
       8521                1.00000    
       8522                1.00000    
       8523                1.00000    
       8524                1.00000    
       8525                1.00000    
       8526                1.00000    
       8527                1.00000    
       8528                1.00000    
       8529                1.00000    
       8530                1.00000    
       8531                1.00000    
       8532                1.00000    
       8533                1.00000    
       8534                1.00000    
       8535                1.00000    
       8536                1.00000    
       8537                1.00000    
       8538                1.00000    
       8539                1.00000    
       8540                1.00000    
       8541                1.00000    
       8542                1.00000    
       8543                1.00000    
       8544                1.00000    
       8545                1.00000    
       8546                1.00000    
       8547                1.00000    
       8548                1.00000    
       8549                1.00000    
       8550                1.00000    
       8551                1.00000    
       8552                1.00000    
       8553                1.00000    
       8554                1.00000    
       8555                1.00000    
       8556                1.00000    
       8557                1.00000    
       8558                1.00000    
       8559                1.00000    
       8560                1.00000    
       8561                1.00000    
       8562                1.00000    
       8563                1.00000    
       8564                1.00000    
       8565                1.00000    
       8566                1.00000    
       8567                1.00000    
       8568                1.00000    
       8569                1.00000    
       8570                1.00000    
       8571                1.00000    
       8572                1.00000    
       8573                1.00000    
       8574                1.00000    
       8575                1.00000    
       8576                1.00000    
       8577                1.00000    
       8578                1.00000    
       8579                1.00000    
       8580                1.00000    
       8581                1.00000    
       8582                1.00000    
       8583                1.00000    
       8584                1.00000    
       8585                1.00000    
       8586                1.00000    
       8587                1.00000    
       8588                1.00000    
       8589                1.00000    
       8590                1.00000    
       8591                1.00000    
       8592                1.00000    
       8593                1.00000    
       8594                1.00000    
       8595                1.00000    
       8596                1.00000    
       8597                1.00000    
       8598                1.00000    
       8599                1.00000    
       8600                1.00000    
       8601                1.00000    
       8602                1.00000    
       8603                1.00000    
       8604                1.00000    
       8605                1.00000    
       8606                1.00000    
       8607                1.00000    
       8608                1.00000    
       8609                1.00000    
       8610                1.00000    
       8611                1.00000    
       8612                1.00000    
       8613                1.00000    
       8614                1.00000    
       8615                1.00000    
       8616                1.00000    
       8617                1.00000    
       8618                1.00000    
       8619                1.00000    
       8620                1.00000    
       8621                1.00000    
       8622                1.00000    
       8623                1.00000    
       8624                1.00000    
       8625                1.00000    
       8626                1.00000    
       8627                1.00000    
       8628                1.00000    
       8629                1.00000    
       8630                1.00000    
       8631                1.00000    
       8632                1.00000    
       8633                1.00000    
       8634                1.00000    
       8635                1.00000    
       8636                1.00000    
       8637                1.00000    
       8638                1.00000    
       8639                1.00000    
       8640                1.00000    
       8641                1.00000    
       8642                1.00000    
       8643                1.00000    
       8644                1.00000    
       8645                1.00000    
       8646                1.00000    
       8647                1.00000    
       8648                1.00000    
       8649                1.00000    
       8650                1.00000    
       8651                1.00000    
       8652                1.00000    
       8653                1.00000    
       8654                1.00000    
       8655                1.00000    
       8656                1.00000    
       8657                1.00000    
       8658                1.00000    
       8659                1.00000    
       8660                1.00000    
       8661                1.00000    
       8662                1.00000    
       8663                1.00000    
       8664                1.00000    
       8665                1.00000    
       8666                1.00000    
       8667                1.00000    
       8668                1.00000    
       8669                1.00000    
       8670                1.00000    
       8671                1.00000    
       8672                1.00000    
       8673                1.00000    
       8674                1.00000    
       8675                1.00000    
       8676                1.00000    
       8677                1.00000    
       8678                1.00000    
       8679                1.00000    
       8680                1.00000    
       8681                1.00000    
       8682                1.00000    
       8683                1.00000    
       8684                1.00000    
       8685                1.00000    
       8686                1.00000    
       8687                1.00000    
       8688                1.00000    
       8689                1.00000    
       8690                1.00000    
       8691                1.00000    
       8692                1.00000    
       8693                1.00000    
       8694                1.00000    
       8695                1.00000    
       8696                1.00000    
       8697                1.00000    
       8698                1.00000    
       8699                1.00000    
       8700                1.00000    
       8701                1.00000    
       8702                1.00000    
       8703                1.00000    
       8704                1.00000    
       8705                1.00000    
       8706                1.00000    
       8707                1.00000    
       8708                1.00000    
       8709                1.00000    
       8710                1.00000    
       8711                1.00000    
       8712                1.00000    
       8713                1.00000    
       8714                1.00000    
       8715                1.00000    
       8716                1.00000    
       8717                1.00000    
       8718                1.00000    
       8719                1.00000    
       8720                1.00000    
       8721                1.00000    
       8722                1.00000    
       8723                1.00000    
       8724                1.00000    
       8725                1.00000    
       8726                1.00000    
       8727                1.00000    
       8728                1.00000    
       8729                1.00000    
       8730                1.00000    
       8731                1.00000    
       8732                1.00000    
       8733                1.00000    
       8734                1.00000    
       8735                1.00000    
       8736                1.00000    
       8737                1.00000    
       8738                1.00000    
       8739                1.00000    
       8740                1.00000    
       8741                1.00000    
       8742                1.00000    
       8743                1.00000    
       8744                1.00000    
       8745                1.00000    
       8746                1.00000    
       8747                1.00000    
       8748                1.00000    
       8749                1.00000    
       8750                1.00000    
       8751                1.00000    
       8752                1.00000    
       8753                1.00000    
       8754                1.00000    
       8755                1.00000    
       8756                1.00000    
       8757                1.00000    
       8758                1.00000    
       8759                1.00000    
       8760                1.00000    
       8761                1.00000    
       8762                1.00000    
       8763                1.00000    
       8764                1.00000    
       8765                1.00000    
       8766                1.00000    
       8767                1.00000    
       8768                1.00000    
       8769                1.00000    
       8770                1.00000    
       8771                1.00000    
       8772                1.00000    
       8773                1.00000    
       8774                1.00000    
       8775                1.00000    
       8776                1.00000    
       8777                1.00000    
       8778                1.00000    
       8779                1.00000    
       8780                1.00000    
       8781                1.00000    
       8782                1.00000    
       8783                1.00000    
       8784                1.00000    
       8785                1.00000    
       8786                1.00000    
       8787                1.00000    
       8788                1.00000    
       8789                1.00000    
       8790                1.00000    
       8791                1.00000    
       8792                1.00000    
       8793                1.00000    
       8794                1.00000    
       8795                1.00000    
       8796                1.00000    
       8797                1.00000    
       8798                1.00000    
       8799                1.00000    
       8800                1.00000    
       8801                1.00000    
       8802                1.00000    
       8803                1.00000    
       8804                1.00000    
       8805                1.00000    
       8806                1.00000    
       8807                1.00000    
       8808                1.00000    
       8809                1.00000    
       8810                1.00000    
       8811                1.00000    
       8812                1.00000    
       8813                1.00000    
       8814                1.00000    
       8815                1.00000    
       8816                1.00000    
       8817                1.00000    
       8818                1.00000    
       8819                1.00000    
       8820                1.00000    
       8821                1.00000    
       8822                1.00000    
       8823                1.00000    
       8824                1.00000    
       8825                1.00000    
       8826                1.00000    
       8827                1.00000    
       8828                1.00000    
       8829                1.00000    
       8830                1.00000    
       8831                1.00000    
       8832                1.00000    
       8833                1.00000    
       8834                1.00000    
       8835                1.00000    
       8836                1.00000    
       8837                1.00000    
       8838                1.00000    
       8839                1.00000    
       8840                1.00000    
       8841                1.00000    
       8842                1.00000    
       8843                1.00000    
       8844                1.00000    
       8845                1.00000    
       8846                1.00000    
       8847                1.00000    
       8848                1.00000    
       8849                1.00000    
       8850                1.00000    
       8851                1.00000    
       8852                1.00000    
       8853                1.00000    
       8854                1.00000    
       8855                1.00000    
       8856                1.00000    
       8857                1.00000    
       8858                1.00000    
       8859                1.00000    
       8860                1.00000    
       8861                1.00000    
       8862                1.00000    
       8863                1.00000    
       8864                1.00000    
       8865                1.00000    
       8866                1.00000    
       8867                1.00000    
       8868                1.00000    
       8869                1.00000    
       8870                1.00000    
       8871                1.00000    
       8872                1.00000    
       8873                1.00000    
       8874                1.00000    
       8875                1.00000    
       8876                1.00000    
       8877                1.00000    
       8878                1.00000    
       8879                1.00000    
       8880                1.00000    
       8881                1.00000    
       8882                1.00000    
       8883                1.00000    
       8884                1.00000    
       8885                1.00000    
       8886                1.00000    
       8887                1.00000    
       8888                1.00000    
       8889                1.00000    
       8890                1.00000    
       8891                1.00000    
       8892                1.00000    
       8893                1.00000    
       8894                1.00000    
       8895                1.00000    
       8896                1.00000    
       8897                1.00000    
       8898                1.00000    
       8899                1.00000    
       8900                1.00000    
       8901                1.00000    
       8902                1.00000    
       8903                1.00000    
       8904                1.00000    
       8905                1.00000    
       8906                1.00000    
       8907                1.00000    
       8908                1.00000    
       8909                1.00000    
       8910                1.00000    
       8911                1.00000    
       8912                1.00000    
       8913                1.00000    
       8914                1.00000    
       8915                1.00000    
       8916                1.00000    
       8917                1.00000    
       8918                1.00000    
       8919                1.00000    
       8920                1.00000    
       8921                1.00000    
       8922                1.00000    
       8923                1.00000    
       8924                1.00000    
       8925                1.00000    
       8926                1.00000    
       8927                1.00000    
       8928                1.00000    
       8929                1.00000    
       8930                1.00000    
       8931                1.00000    
       8932                1.00000    
       8933                1.00000    
       8934                1.00000    
       8935                1.00000    
       8936                1.00000    
       8937                1.00000    
       8938                1.00000    
       8939                1.00000    
       8940                1.00000    
       8941                1.00000    
       8942                1.00000    
       8943                1.00000    
       8944                1.00000    
       8945                1.00000    
       8946                1.00000    
       8947                1.00000    
       8948                1.00000    
       8949                1.00000    
       8950                1.00000    
       8951                1.00000    
       8952                1.00000    
       8953                1.00000    
       8954                1.00000    
       8955                1.00000    
       8956                1.00000    
       8957                1.00000    
       8958                1.00000    
       8959                1.00000    
       8960                1.00000    
       8961                1.00000    
       8962                1.00000    
       8963                1.00000    
       8964                1.00000    
       8965                1.00000    
       8966                1.00000    
       8967                1.00000    
       8968                1.00000    
       8969                1.00000    
       8970                1.00000    
       8971                1.00000    
       8972                1.00000    
       8973                1.00000    
       8974                1.00000    
       8975                1.00000    
       8976                1.00000    
       8977                1.00000    
       8978                1.00000    
       8979                1.00000    
       8980                1.00000    
       8981                1.00000    
       8982                1.00000    
       8983                1.00000    
       8984                1.00000    
       8985                1.00000    
       8986                1.00000    
       8987                1.00000    
       8988                1.00000    
       8989                1.00000    
       8990                1.00000    
       8991                1.00000    
       8992                1.00000    
       8993                1.00000    
       8994                1.00000    
       8995                1.00000    
       8996                1.00000    
       8997                1.00000    
       8998                1.00000    
       8999                1.00000    
       9000                1.00000    
       9001                1.00000    
       9002                1.00000    
       9003                1.00000    
       9004                1.00000    
       9005                1.00000    
       9006                1.00000    
       9007                1.00000    
       9008                1.00000    
       9009                1.00000    
       9010                1.00000    
       9011                1.00000    
       9012                1.00000    
       9013                1.00000    
       9014                1.00000    
       9015                1.00000    
       9016                1.00000    
       9017                1.00000    
       9018                1.00000    
       9019                1.00000    
       9020                1.00000    
       9021                1.00000    
       9022                1.00000    
       9023                1.00000    
       9024                1.00000    
       9025                1.00000    
       9026                1.00000    
       9027                1.00000    
       9028                1.00000    
       9029                1.00000    
       9030                1.00000    
       9031                1.00000    
       9032                1.00000    
       9033                1.00000    
       9034                1.00000    
       9035                1.00000    
       9036                1.00000    
       9037                1.00000    
       9038                1.00000    
       9039                1.00000    
       9040                1.00000    
       9041                1.00000    
       9042                1.00000    
       9043                1.00000    
       9044                1.00000    
       9045                1.00000    
       9046                1.00000    
       9047                1.00000    
       9048                1.00000    
       9049                1.00000    
       9050                1.00000    
       9051                1.00000    
       9052                1.00000    
       9053                1.00000    
       9054                1.00000    
       9055                1.00000    
       9056                1.00000    
       9057                1.00000    
       9058                1.00000    
       9059                1.00000    
       9060                1.00000    
       9061                1.00000    
       9062                1.00000    
       9063                1.00000    
       9064                1.00000    
       9065                1.00000    
       9066                1.00000    
       9067                1.00000    
       9068                1.00000    
       9069                1.00000    
       9070                1.00000    
       9071                1.00000    
       9072                1.00000    
       9073                1.00000    
       9074                1.00000    
       9075                1.00000    
       9076                1.00000    
       9077                1.00000    
       9078                1.00000    
       9079                1.00000    
       9080                1.00000    
       9081                1.00000    
       9082                1.00000    
       9083                1.00000    
       9084                1.00000    
       9085                1.00000    
       9086                1.00000    
       9087                1.00000    
       9088                1.00000    
       9089                1.00000    
       9090                1.00000    
       9091                1.00000    
       9092                1.00000    
       9093                1.00000    
       9094                1.00000    
       9095                1.00000    
       9096                1.00000    
       9097                1.00000    
       9098                1.00000    
       9099                1.00000    
       9100                1.00000    
       9101                1.00000    
       9102                1.00000    
       9103                1.00000    
       9104                1.00000    
       9105                1.00000    
       9106                1.00000    
       9107                1.00000    
       9108                1.00000    
       9109                1.00000    
       9110                1.00000    
       9111                1.00000    
       9112                1.00000    
       9113                1.00000    
       9114                1.00000    
       9115                1.00000    
       9116                1.00000    
       9117                1.00000    
       9118                1.00000    
       9119                1.00000    
       9120                1.00000    
       9121                1.00000    
       9122                1.00000    
       9123                1.00000    
       9124                1.00000    
       9125                1.00000    
       9126                1.00000    
       9127                1.00000    
       9128                1.00000    
       9129                1.00000    
       9130                1.00000    
       9131                1.00000    
       9132                1.00000    
       9133                1.00000    
       9134                1.00000    
       9135                1.00000    
       9136                1.00000    
       9137                1.00000    
       9138                1.00000    
       9139                1.00000    
       9140                1.00000    
       9141                1.00000    
       9142                1.00000    
       9143                1.00000    
       9144                1.00000    
       9145                1.00000    
       9146                1.00000    
       9147                1.00000    
       9148                1.00000    
       9149                1.00000    
       9150                1.00000    
       9151                1.00000    
       9152                1.00000    
       9153                1.00000    
       9154                1.00000    
       9155                1.00000    
       9156                1.00000    
       9157                1.00000    
       9158                1.00000    
       9159                1.00000    
       9160                1.00000    
       9161                1.00000    
       9162                1.00000    
       9163                1.00000    
       9164                1.00000    
       9165                1.00000    
       9166                1.00000    
       9167                1.00000    
       9168                1.00000    
       9169                1.00000    
       9170                1.00000    
       9171                1.00000    
       9172                1.00000    
       9173                1.00000    
       9174                1.00000    
       9175                1.00000    
       9176                1.00000    
       9177                1.00000    
       9178                1.00000    
       9179                1.00000    
       9180                1.00000    
       9181                1.00000    
       9182                1.00000    
       9183                1.00000    
       9184                1.00000    
       9185                1.00000    
       9186                1.00000    
       9187                1.00000    
       9188                1.00000    
       9189                1.00000    
       9190                1.00000    
       9191                1.00000    
       9192                1.00000    
       9193                1.00000    
       9194                1.00000    
       9195                1.00000    
       9196                1.00000    
       9197                1.00000    
       9198                1.00000    
       9199                1.00000    
       9200                1.00000    
       9201                1.00000    
       9202                1.00000    
       9203                1.00000    
       9204                1.00000    
       9205                1.00000    
       9206                1.00000    
       9207                1.00000    
       9208                1.00000    
       9209                1.00000    
       9210                1.00000    
       9211                1.00000    
       9212                1.00000    
       9213                1.00000    
       9214                1.00000    
       9215                1.00000    
       9216                1.00000    
       9217                1.00000    
       9218                1.00000    
       9219                1.00000    
       9220                1.00000    
       9221                1.00000    
       9222                1.00000    
       9223                1.00000    
       9224                1.00000    
       9225                1.00000    
       9226                1.00000    
       9227                1.00000    
       9228                1.00000    
       9229                1.00000    
       9230                1.00000    
       9231                1.00000    
       9232                1.00000    
       9233                1.00000    
       9234                1.00000    
       9235                1.00000    
       9236                1.00000    
       9237                1.00000    
       9238                1.00000    
       9239                1.00000    
       9240                1.00000    
       9241                1.00000    
       9242                1.00000    
       9243                1.00000    
       9244                1.00000    
       9245                1.00000    
       9246                1.00000    
       9247                1.00000    
       9248                1.00000    
       9249                1.00000    
       9250                1.00000    
       9251                1.00000    
       9252                1.00000    
       9253                1.00000    
       9254                1.00000    
       9255                1.00000    
       9256                1.00000    
       9257                1.00000    
       9258                1.00000    
       9259                1.00000    
       9260                1.00000    
       9261                1.00000    
       9262                1.00000    
       9263                1.00000    
       9264                1.00000    
       9265                1.00000    
       9266                1.00000    
       9267                1.00000    
       9268                1.00000    
       9269                1.00000    
       9270                1.00000    
       9271                1.00000    
       9272                1.00000    
       9273                1.00000    
       9274                1.00000    
       9275                1.00000    
       9276                1.00000    
       9277                1.00000    
       9278                1.00000    
       9279                1.00000    
       9280                1.00000    
       9281                1.00000    
       9282                1.00000    
       9283                1.00000    
       9284                1.00000    
       9285                1.00000    
       9286                1.00000    
       9287                1.00000    
       9288                1.00000    
       9289                1.00000    
       9290                1.00000    
       9291                1.00000    
       9292                1.00000    
       9293                1.00000    
       9294                1.00000    
       9295                1.00000    
       9296                1.00000    
       9297                1.00000    
       9298                1.00000    
       9299                1.00000    
       9300                1.00000    
       9301                1.00000    
       9302                1.00000    
       9303                1.00000    
       9304                1.00000    
       9305                1.00000    
       9306                1.00000    
       9307                1.00000    
       9308                1.00000    
       9309                1.00000    
       9310                1.00000    
       9311                1.00000    
       9312                1.00000    
       9313                1.00000    
       9314                1.00000    
       9315                1.00000    
       9316                1.00000    
       9317                1.00000    
       9318                1.00000    
       9319                1.00000    
       9320                1.00000    
       9321                1.00000    
       9322                1.00000    
       9323                1.00000    
       9324                1.00000    
       9325                1.00000    
       9326                1.00000    
       9327                1.00000    
       9328                1.00000    
       9329                1.00000    
       9330                1.00000    
       9331                1.00000    
       9332                1.00000    
       9333                1.00000    
       9334                1.00000    
       9335                1.00000    
       9336                1.00000    
       9337                1.00000    
       9338                1.00000    
       9339                1.00000    
       9340                1.00000    
       9341                1.00000    
       9342                1.00000    
       9343                1.00000    
       9344                1.00000    
       9345                1.00000    
       9346                1.00000    
       9347                1.00000    
       9348                1.00000    
       9349                1.00000    
       9350                1.00000    
       9351                1.00000    
       9352                1.00000    
       9353                1.00000    
       9354                1.00000    
       9355                1.00000    
       9356                1.00000    
       9357                1.00000    
       9358                1.00000    
       9359                1.00000    
       9360                1.00000    
       9361                1.00000    
       9362                1.00000    
       9363                1.00000    
       9364                1.00000    
       9365                1.00000    
       9366                1.00000    
       9367                1.00000    
       9368                1.00000    
       9369                1.00000    
       9370                1.00000    
       9371                1.00000    
       9372                1.00000    
       9373                1.00000    
       9374                1.00000    
       9375                1.00000    
       9376                1.00000    
       9377                1.00000    
       9378                1.00000    
       9379                1.00000    
       9380                1.00000    
       9381                1.00000    
       9382                1.00000    
       9383                1.00000    
       9384                1.00000    
       9385                1.00000    
       9386                1.00000    
       9387                1.00000    
       9388                1.00000    
       9389                1.00000    
       9390                1.00000    
       9391                1.00000    
       9392                1.00000    
       9393                1.00000    
       9394                1.00000    
       9395                1.00000    
       9396                1.00000    
       9397                1.00000    
       9398                1.00000    
       9399                1.00000    
       9400                1.00000    
       9401                1.00000    
       9402                1.00000    
       9403                1.00000    
       9404                1.00000    
       9405                1.00000    
       9406                1.00000    
       9407                1.00000    
       9408                1.00000    
       9409                1.00000    
       9410                1.00000    
       9411                1.00000    
       9412                1.00000    
       9413                1.00000    
       9414                1.00000    
       9415                1.00000    
       9416                1.00000    
       9417                1.00000    
       9418                1.00000    
       9419                1.00000    
       9420                1.00000    
       9421                1.00000    
       9422                1.00000    
       9423                1.00000    
       9424                1.00000    
       9425                1.00000    
       9426                1.00000    
       9427                1.00000    
       9428                1.00000    
       9429                1.00000    
       9430                1.00000    
       9431                1.00000    
       9432                1.00000    
       9433                1.00000    
       9434                1.00000    
       9435                1.00000    
       9436                1.00000    
       9437                1.00000    
       9438                1.00000    
       9439                1.00000    
       9440                1.00000    
       9441                1.00000    
       9442                1.00000    
       9443                1.00000    
       9444                1.00000    
       9445                1.00000    
       9446                1.00000    
       9447                1.00000    
       9448                1.00000    
       9449                1.00000    
       9450                1.00000    
       9451                1.00000    
       9452                1.00000    
       9453                1.00000    
       9454                1.00000    
       9455                1.00000    
       9456                1.00000    
       9457                1.00000    
       9458                1.00000    
       9459                1.00000    
       9460                1.00000    
       9461                1.00000    
       9462                1.00000    
       9463                1.00000    
       9464                1.00000    
       9465                1.00000    
       9466                1.00000    
       9467                1.00000    
       9468                1.00000    
       9469                1.00000    
       9470                1.00000    
       9471                1.00000    
       9472                1.00000    
       9473                1.00000    
       9474                1.00000    
       9475                1.00000    
       9476                1.00000    
       9477                1.00000    
       9478                1.00000    
       9479                1.00000    
       9480                1.00000    
       9481                1.00000    
       9482                1.00000    
       9483                1.00000    
       9484                1.00000    
       9485                1.00000    
       9486                1.00000    
       9487                1.00000    
       9488                1.00000    
       9489                1.00000    
       9490                1.00000    
       9491                1.00000    
       9492                1.00000    
       9493                1.00000    
       9494                1.00000    
       9495                1.00000    
       9496                1.00000    
       9497                1.00000    
       9498                1.00000    
       9499                1.00000    
       9500                1.00000    
       9501                1.00000    
       9502                1.00000    
       9503                1.00000    
       9504                1.00000    
       9505                1.00000    
       9506                1.00000    
       9507                1.00000    
       9508                1.00000    
       9509                1.00000    
       9510                1.00000    
       9511                1.00000    
       9512                1.00000    
       9513                1.00000    
       9514                1.00000    
       9515                1.00000    
       9516                1.00000    
       9517                1.00000    
       9518                1.00000    
       9519                1.00000    
       9520                1.00000    
       9521                1.00000    
       9522                1.00000    
       9523                1.00000    
       9524                1.00000    
       9525                1.00000    
       9526                1.00000    
       9527                1.00000    
       9528                1.00000    
       9529                1.00000    
       9530                1.00000    
       9531                1.00000    
       9532                1.00000    
       9533                1.00000    
       9534                1.00000    
       9535                1.00000    
       9536                1.00000    
       9537                1.00000    
       9538                1.00000    
       9539                1.00000    
       9540                1.00000    
       9541                1.00000    
       9542                1.00000    
       9543                1.00000    
       9544                1.00000    
       9545                1.00000    
       9546                1.00000    
       9547                1.00000    
       9548                1.00000    
       9549                1.00000    
       9550                1.00000    
       9551                1.00000    
       9552                1.00000    
       9553                1.00000    
       9554                1.00000    
       9555                1.00000    
       9556                1.00000    
       9557                1.00000    
       9558                1.00000    
       9559                1.00000    
       9560                1.00000    
       9561                1.00000    
       9562                1.00000    
       9563                1.00000    
       9564                1.00000    
       9565                1.00000    
       9566                1.00000    
       9567                1.00000    
       9568                1.00000    
       9569                1.00000    
       9570                1.00000    
       9571                1.00000    
       9572                1.00000    
       9573                1.00000    
       9574                1.00000    
       9575                1.00000    
       9576                1.00000    
       9577                1.00000    
       9578                1.00000    
       9579                1.00000    
       9580                1.00000    
       9581                1.00000    
       9582                1.00000    
       9583                1.00000    
       9584                1.00000    
       9585                1.00000    
       9586                1.00000    
       9587                1.00000    
       9588                1.00000    
       9589                1.00000    
       9590                1.00000    
       9591                1.00000    
       9592                1.00000    
       9593                1.00000    
       9594                1.00000    
       9595                1.00000    
       9596                1.00000    
       9597                1.00000    
       9598                1.00000    
       9599                1.00000    
       9600                1.00000    
       9601                1.00000    
       9602                1.00000    
       9603                1.00000    
       9604                1.00000    
       9605                1.00000    
       9606                1.00000    
       9607                1.00000    
       9608                1.00000    
       9609                1.00000    
       9610                1.00000    
       9611                1.00000    
       9612                1.00000    
       9613                1.00000    
       9614                1.00000    
       9615                1.00000    
       9616                1.00000    
       9617                1.00000    
       9618                1.00000    
       9619                1.00000    
       9620                1.00000    
       9621                1.00000    
       9622                1.00000    
       9623                1.00000    
       9624                1.00000    
       9625                1.00000    
       9626                1.00000    
       9627                1.00000    
       9628                1.00000    
       9629                1.00000    
       9630                1.00000    
       9631                1.00000    
       9632                1.00000    
       9633                1.00000    
       9634                1.00000    
       9635                1.00000    
       9636                1.00000    
       9637                1.00000    
       9638                1.00000    
       9639                1.00000    
       9640                1.00000    
       9641                1.00000    
       9642                1.00000    
       9643                1.00000    
       9644                1.00000    
       9645                1.00000    
       9646                1.00000    
       9647                1.00000    
       9648                1.00000    
       9649                1.00000    
       9650                1.00000    
       9651                1.00000    
       9652                1.00000    
       9653                1.00000    
       9654                1.00000    
       9655                1.00000    
       9656                1.00000    
       9657                1.00000    
       9658                1.00000    
       9659                1.00000    
       9660                1.00000    
       9661                1.00000    
       9662                1.00000    
       9663                1.00000    
       9664                1.00000    
       9665                1.00000    
       9666                1.00000    
       9667                1.00000    
       9668                1.00000    
       9669                1.00000    
       9670                1.00000    
       9671                1.00000    
       9672                1.00000    
       9673                1.00000    
       9674                1.00000    
       9675                1.00000    
       9676                1.00000    
       9677                1.00000    
       9678                1.00000    
       9679                1.00000    
       9680                1.00000    
       9681                1.00000    
       9682                1.00000    
       9683                1.00000    
       9684                1.00000    
       9685                1.00000    
       9686                1.00000    
       9687                1.00000    
       9688                1.00000    
       9689                1.00000    
       9690                1.00000    
       9691                1.00000    
       9692                1.00000    
       9693                1.00000    
       9694                1.00000    
       9695                1.00000    
       9696                1.00000    
       9697                1.00000    
       9698                1.00000    
       9699                1.00000    
       9700                1.00000    
       9701                1.00000    
       9702                1.00000    
       9703                1.00000    
       9704                1.00000    
       9705                1.00000    
       9706                1.00000    
       9707                1.00000    
       9708                1.00000    
       9709                1.00000    
       9710                1.00000    
       9711                1.00000    
       9712                1.00000    
       9713                1.00000    
       9714                1.00000    
       9715                1.00000    
       9716                1.00000    
       9717                1.00000    
       9718                1.00000    
       9719                1.00000    
       9720                1.00000    
       9721                1.00000    
       9722                1.00000    
       9723                1.00000    
       9724                1.00000    
       9725                1.00000    
       9726                1.00000    
       9727                1.00000    
       9728                1.00000    
       9729                1.00000    
       9730                1.00000    
       9731                1.00000    
       9732                1.00000    
       9733                1.00000    
       9734                1.00000    
       9735                1.00000    
       9736                1.00000    
       9737                1.00000    
       9738                1.00000    
       9739                1.00000    
       9740                1.00000    
       9741                1.00000    
       9742                1.00000    
       9743                1.00000    
       9744                1.00000    
       9745                1.00000    
       9746                1.00000    
       9747                1.00000    
       9748                1.00000    
       9749                1.00000    
       9750                1.00000    
       9751                1.00000    
       9752                1.00000    
       9753                1.00000    
       9754                1.00000    
       9755                1.00000    
       9756                1.00000    
       9757                1.00000    
       9758                1.00000    
       9759                1.00000    
       9760                1.00000    
       9761                1.00000    
       9762                1.00000    
       9763                1.00000    
       9764                1.00000    
       9765                1.00000    
       9766                1.00000    
       9767                1.00000    
       9768                1.00000    
       9769                1.00000    
       9770                1.00000    
       9771                1.00000    
       9772                1.00000    
       9773                1.00000    
       9774                1.00000    
       9775                1.00000    
       9776                1.00000    
       9777                1.00000    
       9778                1.00000    
       9779                1.00000    
       9780                1.00000    
       9781                1.00000    
       9782                1.00000    
       9783                1.00000    
       9784                1.00000    
       9785                1.00000    
       9786                1.00000    
       9787                1.00000    
       9788                1.00000    
       9789                1.00000    
       9790                1.00000    
       9791                1.00000    
       9792                1.00000    
       9793                1.00000    
       9794                1.00000    
       9795                1.00000    
       9796                1.00000    
       9797                1.00000    
       9798                1.00000    
       9799                1.00000    
       9800                1.00000    
       9801                1.00000    
       9802                1.00000    
       9803                1.00000    
       9804                1.00000    
       9805                1.00000    
       9806                1.00000    
       9807                1.00000    
       9808                1.00000    
       9809                1.00000    
       9810                1.00000    
       9811                1.00000    
       9812                1.00000    
       9813                1.00000    
       9814                1.00000    
       9815                1.00000    
       9816                1.00000    
       9817                1.00000    
       9818                1.00000    
       9819                1.00000    
       9820                1.00000    
       9821                1.00000    
       9822                1.00000    
       9823                1.00000    
       9824                1.00000    
       9825                1.00000    
       9826                1.00000    
       9827                1.00000    
       9828                1.00000    
       9829                1.00000    
       9830                1.00000    
       9831                1.00000    
       9832                1.00000    
       9833                1.00000    
       9834                1.00000    
       9835                1.00000    
       9836                1.00000    
       9837                1.00000    
       9838                1.00000    
       9839                1.00000    
       9840                1.00000    
       9841                1.00000    
       9842                1.00000    
       9843                1.00000    
       9844                1.00000    
       9845                1.00000    
       9846                1.00000    
       9847                1.00000    
       9848                1.00000    
       9849                1.00000    
       9850                1.00000    
       9851                1.00000    
       9852                1.00000    
       9853                1.00000    
       9854                1.00000    
       9855                1.00000    
       9856                1.00000    
       9857                1.00000    
       9858                1.00000    
       9859                1.00000    
       9860                1.00000    
       9861                1.00000    
       9862                1.00000    
       9863                1.00000    
       9864                1.00000    
       9865                1.00000    
       9866                1.00000    
       9867                1.00000    
       9868                1.00000    
       9869                1.00000    
       9870                1.00000    
       9871                1.00000    
       9872                1.00000    
       9873                1.00000    
       9874                1.00000    
       9875                1.00000    
       9876                1.00000    
       9877                1.00000    
       9878                1.00000    
       9879                1.00000    
       9880                1.00000    
       9881                1.00000    
       9882                1.00000    
       9883                1.00000    
       9884                1.00000    
       9885                1.00000    
       9886                1.00000    
       9887                1.00000    
       9888                1.00000    
       9889                1.00000    
       9890                1.00000    
       9891                1.00000    
       9892                1.00000    
       9893                1.00000    
       9894                1.00000    
       9895                1.00000    
       9896                1.00000    
       9897                1.00000    
       9898                1.00000    
       9899                1.00000    
       9900                1.00000    
       9901                1.00000    
       9902                1.00000    
       9903                1.00000    
       9904                1.00000    
       9905                1.00000    
       9906                1.00000    
       9907                1.00000    
       9908                1.00000    
       9909                1.00000    
       9910                1.00000    
       9911                1.00000    
       9912                1.00000    
       9913                1.00000    
       9914                1.00000    
       9915                1.00000    
       9916                1.00000    
       9917                1.00000    
       9918                1.00000    
       9919                1.00000    
       9920                1.00000    
       9921                1.00000    
       9922                1.00000    
       9923                1.00000    
       9924                1.00000    
       9925                1.00000    
       9926                1.00000    
       9927                1.00000    
       9928                1.00000    
       9929                1.00000    
       9930                1.00000    
       9931                1.00000    
       9932                1.00000    
       9933                1.00000    
       9934                1.00000    
       9935                1.00000    
       9936                1.00000    
       9937                1.00000    
       9938                1.00000    
       9939                1.00000    
       9940                1.00000    
       9941                1.00000    
       9942                1.00000    
       9943                1.00000    
       9944                1.00000    
       9945                1.00000    
       9946                1.00000    
       9947                1.00000    
       9948                1.00000    
       9949                1.00000    
       9950                1.00000    
       9951                1.00000    
       9952                1.00000    
       9953                1.00000    
       9954                1.00000    
       9955                1.00000    
       9956                1.00000    
       9957                1.00000    
       9958                1.00000    
       9959                1.00000    
       9960                1.00000    
       9961                1.00000    
       9962                1.00000    
       9963                1.00000    
       9964                1.00000    
       9965                1.00000    
       9966                1.00000    
       9967                1.00000    
       9968                1.00000    
       9969                1.00000    
       9970                1.00000    
       9971                1.00000    
       9972                1.00000    
       9973                1.00000    
       9974                1.00000    
       9975                1.00000    
       9976                1.00000    
       9977                1.00000    
       9978                1.00000    
       9979                1.00000    
       9980                1.00000    
       9981                1.00000    
       9982                1.00000    
       9983                1.00000    
       9984                1.00000    
       9985                1.00000    
       9986                1.00000    
       9987                1.00000    
       9988                1.00000    
       9989                1.00000    
       9990                1.00000    
       9991                1.00000    
       9992                1.00000    
       9993                1.00000    
       9994                1.00000    
       9995                1.00000    
       9996                1.00000    
       9997                1.00000    
       9998                1.00000    
       9999                1.00000    
      10000                1.00000    
      10001                1.00000    
      10002                1.00000    
      10003                1.00000    
      10004                1.00000    
      10005                1.00000    
      10006                1.00000    
      10007                1.00000    
      10008                1.00000    
      10009                1.00000    
      10010                1.00000    
      10011                1.00000    
      10012                1.00000    
      10013                1.00000    
      10014                1.00000    
      10015                1.00000    
      10016                1.00000    
      10017                1.00000    
      10018                1.00000    
      10019                1.00000    
      10020                1.00000    
      10021                1.00000    
      10022                1.00000    
      10023                1.00000    
      10024                1.00000    
      10025                1.00000    
      10026                1.00000    
      10027                1.00000    
      10028                1.00000    
      10029                1.00000    
      10030                1.00000    
      10031                1.00000    
      10032                1.00000    
      10033                1.00000    
      10034                1.00000    
      10035                1.00000    
      10036                1.00000    
      10037                1.00000    
      10038                1.00000    
      10039                1.00000    
      10040                1.00000    
      10041                1.00000    
      10042                1.00000    
      10043                1.00000    
      10044                1.00000    
      10045                1.00000    
      10046                1.00000    
      10047                1.00000    
      10048                1.00000    
      10049                1.00000    
      10050                1.00000    
      10051                1.00000    
      10052                1.00000    
      10053                1.00000    
      10054                1.00000    
      10055                1.00000    
      10056                1.00000    
      10057                1.00000    
      10058                1.00000    
      10059                1.00000    
      10060                1.00000    
      10061                1.00000    
      10062                1.00000    
      10063                1.00000    
      10064                1.00000    
      10065                1.00000    
      10066                1.00000    
      10067                1.00000    
      10068                1.00000    
      10069                1.00000    
      10070                1.00000    
      10071                1.00000    
      10072                1.00000    
      10073                1.00000    
      10074                1.00000    
      10075                1.00000    
      10076                1.00000    
      10077                1.00000    
      10078                1.00000    
      10079                1.00000    
      10080                1.00000    
      10081                1.00000    
      10082                1.00000    
      10083                1.00000    
      10084                1.00000    
      10085                1.00000    
      10086                1.00000    
      10087                1.00000    
      10088                1.00000    
      10089                1.00000    
      10090                1.00000    
      10091                1.00000    
      10092                1.00000    
      10093                1.00000    
      10094                1.00000    
      10095                1.00000    
      10096                1.00000    
      10097                1.00000    
      10098                1.00000    
      10099                1.00000    
      10100                1.00000    
      10101                1.00000    
      10102                1.00000    
      10103                1.00000    
      10104                1.00000    
      10105                1.00000    
      10106                1.00000    
      10107                1.00000    
      10108                1.00000    
      10109                1.00000    
      10110                1.00000    
      10111                1.00000    
      10112                1.00000    
      10113                1.00000    
      10114                1.00000    
      10115                1.00000    
      10116                1.00000    
      10117                1.00000    
      10118                1.00000    
      10119                1.00000    
      10120                1.00000    
      10121                1.00000    
      10122                1.00000    
      10123                1.00000    
      10124                1.00000    
      10125                1.00000    
      10126                1.00000    
      10127                1.00000    
      10128                1.00000    
      10129                1.00000    
      10130                1.00000    
      10131                1.00000    
      10132                1.00000    
      10133                1.00000    
      10134                1.00000    
      10135                1.00000    
      10136                1.00000    
      10137                1.00000    
      10138                1.00000    
      10139                1.00000    
      10140                1.00000    
      10141                1.00000    
      10142                1.00000    
      10143                1.00000    
      10144                1.00000    
      10145                1.00000    
      10146                1.00000    
      10147                1.00000    
      10148                1.00000    
      10149                1.00000    
      10150                1.00000    
      10151                1.00000    
      10152                1.00000    
      10153                1.00000    
      10154                1.00000    
      10155                1.00000    
      10156                1.00000    
      10157                1.00000    
      10158                1.00000    
      10159                1.00000    
      10160                1.00000    
      10161                1.00000    
      10162                1.00000    
      10163                1.00000    
      10164                1.00000    
      10165                1.00000    
      10166                1.00000    
      10167                1.00000    
      10168                1.00000    
      10169                1.00000    
      10170                1.00000    
      10171                1.00000    
      10172                1.00000    
      10173                1.00000    
      10174                1.00000    
      10175                1.00000    
      10176                1.00000    
      10177                1.00000    
      10178                1.00000    
      10179                1.00000    
      10180                1.00000    
      10181                1.00000    
      10182                1.00000    
      10183                1.00000    
      10184                1.00000    
      10185                1.00000    
      10186                1.00000    
      10187                1.00000    
      10188                1.00000    
      10189                1.00000    
      10190                1.00000    
      10191                1.00000    
      10192                1.00000    
      10193                1.00000    
      10194                1.00000    
      10195                1.00000    
      10196                1.00000    
      10197                1.00000    
      10198                1.00000    
      10199                1.00000    
      10200                1.00000    
      10201                1.00000    
      10202                1.00000    
      10203                1.00000    
      10204                1.00000    
      10205                1.00000    
      10206                1.00000    
      10207                1.00000    
      10208                1.00000    
      10209                1.00000    
      10210                1.00000    
      10211                1.00000    
      10212                1.00000    
      10213                1.00000    
      10214                1.00000    
      10215                1.00000    
      10216                1.00000    
      10217                1.00000    
      10218                1.00000    
      10219                1.00000    
      10220                1.00000    
      10221                1.00000    
      10222                1.00000    
      10223                1.00000    
      10224                1.00000    
      10225                1.00000    
      10226                1.00000    
      10227                1.00000    
      10228                1.00000    
      10229                1.00000    
      10230                1.00000    
      10231                1.00000    
      10232                1.00000    
      10233                1.00000    
      10234                1.00000    
      10235                1.00000    
      10236                1.00000    
      10237                1.00000    
      10238                1.00000    
      10239                1.00000    
      10240                1.00000    
      10241                1.00000    
      10242                1.00000    
      10243                1.00000    
      10244                1.00000    
      10245                1.00000    
      10246                1.00000    
      10247                1.00000    
      10248                1.00000    
      10249                1.00000    
      10250                1.00000    
      10251                1.00000    
      10252                1.00000    
      10253                1.00000    
      10254                1.00000    
      10255                1.00000    
      10256                1.00000    
      10257                1.00000    
      10258                1.00000    
      10259                1.00000    
      10260                1.00000    
      10261                1.00000    
      10262                1.00000    
      10263                1.00000    
      10264                1.00000    
      10265                1.00000    
      10266                1.00000    
      10267                1.00000    
      10268                1.00000    
      10269                1.00000    
      10270                1.00000    
      10271                1.00000    
      10272                1.00000    
      10273                1.00000    
      10274                1.00000    
      10275                1.00000    
      10276                1.00000    
      10277                1.00000    
      10278                1.00000    
      10279                1.00000    
      10280                1.00000    
      10281                1.00000    
      10282                1.00000    
      10283                1.00000    
      10284                1.00000    
      10285                1.00000    
      10286                1.00000    
      10287                1.00000    
      10288                1.00000    
      10289                1.00000    
      10290                1.00000    
      10291                1.00000    
      10292                1.00000    
      10293                1.00000    
      10294                1.00000    
      10295                1.00000    
      10296                1.00000    
      10297                1.00000    
      10298                1.00000    
      10299                1.00000    
      10300                1.00000    
      10301                1.00000    
      10302                1.00000    
      10303                1.00000    
      10304                1.00000    
      10305                1.00000    
      10306                1.00000    
      10307                1.00000    
      10308                1.00000    
      10309                1.00000    
      10310                1.00000    
      10311                1.00000    
      10312                1.00000    
      10313                1.00000    
      10314                1.00000    
      10315                1.00000    
      10316                1.00000    
      10317                1.00000    
      10318                1.00000    
      10319                1.00000    
      10320                1.00000    
      10321                1.00000    
      10322                1.00000    
      10323                1.00000    
      10324                1.00000    
      10325                1.00000    
      10326                1.00000    
      10327                1.00000    
      10328                1.00000    
      10329                1.00000    
      10330                1.00000    
      10331                1.00000    
      10332                1.00000    
      10333                1.00000    
      10334                1.00000    
      10335                1.00000    
      10336                1.00000    
      10337                1.00000    
      10338                1.00000    
      10339                1.00000    
      10340                1.00000    
      10341                1.00000    
      10342                1.00000    
      10343                1.00000    
      10344                1.00000    
      10345                1.00000    
      10346                1.00000    
      10347                1.00000    
      10348                1.00000    
      10349                1.00000    
      10350                1.00000    
      10351                1.00000    
      10352                1.00000    
      10353                1.00000    
      10354                1.00000    
      10355                1.00000    
      10356                1.00000    
      10357                1.00000    
      10358                1.00000    
      10359                1.00000    
      10360                1.00000    
      10361                1.00000    
      10362                1.00000    
      10363                1.00000    
      10364                1.00000    
      10365                1.00000    
      10366                1.00000    
      10367                1.00000    
      10368                1.00000    
      10369                1.00000    
      10370                1.00000    
      10371                1.00000    
      10372                1.00000    
      10373                1.00000    
      10374                1.00000    
      10375                1.00000    
      10376                1.00000    
      10377                1.00000    
      10378                1.00000    
      10379                1.00000    
      10380                1.00000    
      10381                1.00000    
      10382                1.00000    
      10383                1.00000    
      10384                1.00000    
      10385                1.00000    
      10386                1.00000    
      10387                1.00000    
      10388                1.00000    
      10389                1.00000    
      10390                1.00000    
      10391                1.00000    
      10392                1.00000    
      10393                1.00000    
      10394                1.00000    
      10395                1.00000    
      10396                1.00000    
      10397                1.00000    
      10398                1.00000    
      10399                1.00000    
      10400                1.00000    
      10401                1.00000    
      10402                1.00000    
      10403                1.00000    
      10404                1.00000    
      10405                1.00000    
      10406                1.00000    
      10407                1.00000    
      10408                1.00000    
      10409                1.00000    
      10410                1.00000    
      10411                1.00000    
      10412                1.00000    
      10413                1.00000    
      10414                1.00000    
      10415                1.00000    
      10416                1.00000    
      10417                1.00000    
      10418                1.00000    
      10419                1.00000    
      10420                1.00000    
      10421                1.00000    
      10422                1.00000    
      10423                1.00000    
      10424                1.00000    
      10425                1.00000    
      10426                1.00000    
      10427                1.00000    
      10428                1.00000    
      10429                1.00000    
      10430                1.00000    
      10431                1.00000    
      10432                1.00000    
      10433                1.00000    
      10434                1.00000    
      10435                1.00000    
      10436                1.00000    
      10437                1.00000    
      10438                1.00000    
      10439                1.00000    
      10440                1.00000    
      10441                1.00000    
      10442                1.00000    
      10443                1.00000    
      10444                1.00000    
      10445                1.00000    
      10446                1.00000    
      10447                1.00000    
      10448                1.00000    
      10449                1.00000    
      10450                1.00000    
      10451                1.00000    
      10452                1.00000    
      10453                1.00000    
      10454                1.00000    
      10455                1.00000    
      10456                1.00000    
      10457                1.00000    
      10458                1.00000    
      10459                1.00000    
      10460                1.00000    
      10461                1.00000    
      10462                1.00000    
      10463                1.00000    
      10464                1.00000    
      10465                1.00000    
      10466                1.00000    
      10467                1.00000    
      10468                1.00000    
      10469                1.00000    
      10470                1.00000    
      10471                1.00000    
      10472                1.00000    
      10473                1.00000    
      10474                1.00000    
      10475                1.00000    
      10476                1.00000    
      10477                1.00000    
      10478                1.00000    
      10479                1.00000    
      10480                1.00000    
      10481                1.00000    
      10482                1.00000    
      10483                1.00000    
      10484                1.00000    
      10485                1.00000    
      10486                1.00000    
      10487                1.00000    
      10488                1.00000    
      10489                1.00000    
      10490                1.00000    
      10491                1.00000    
      10492                1.00000    
      10493                1.00000    
      10494                1.00000    
      10495                1.00000    
      10496                1.00000    
      10497                1.00000    
      10498                1.00000    
      10499                1.00000    
      10500                1.00000    
      10501                1.00000    
      10502                1.00000    
      10503                1.00000    
      10504                1.00000    
      10505                1.00000    
      10506                1.00000    
      10507                1.00000    
      10508                1.00000    
      10509                1.00000    
      10510                1.00000    
      10511                1.00000    
      10512                1.00000    
      10513                1.00000    
      10514                1.00000    
      10515                1.00000    
      10516                1.00000    
      10517                1.00000    
      10518                1.00000    
      10519                1.00000    
      10520                1.00000    
      10521                1.00000    
      10522                1.00000    
      10523                1.00000    
      10524                1.00000    
      10525                1.00000    
      10526                1.00000    
      10527                1.00000    
      10528                1.00000    
      10529                1.00000    
      10530                1.00000    
      10531                1.00000    
      10532                1.00000    
      10533                1.00000    
      10534                1.00000    
      10535                1.00000    
      10536                1.00000    
      10537                1.00000    
      10538                1.00000    
      10539                1.00000    
      10540                1.00000    
      10541                1.00000    
      10542                1.00000    
      10543                1.00000    
      10544                1.00000    
      10545                1.00000    
      10546                1.00000    
      10547                1.00000    
      10548                1.00000    
      10549                1.00000    
      10550                1.00000    
      10551                1.00000    
      10552                1.00000    
      10553                1.00000    
      10554                1.00000    
      10555                1.00000    
      10556                1.00000    
      10557                1.00000    
      10558                1.00000    
      10559                1.00000    
      10560                1.00000    
      10561                1.00000    
      10562                1.00000    
      10563                1.00000    
      10564                1.00000    
      10565                1.00000    
      10566                1.00000    
      10567                1.00000    
      10568                1.00000    
      10569                1.00000    
      10570                1.00000    
      10571                1.00000    
      10572                1.00000    
      10573                1.00000    
      10574                1.00000    
      10575                1.00000    
      10576                1.00000    
      10577                1.00000    
      10578                1.00000    
      10579                1.00000    
      10580                1.00000    
      10581                1.00000    
      10582                1.00000    
      10583                1.00000    
      10584                1.00000    
      10585                1.00000    
      10586                1.00000    
      10587                1.00000    
      10588                1.00000    
      10589                1.00000    
      10590                1.00000    
      10591                1.00000    
      10592                1.00000    
      10593                1.00000    
      10594                1.00000    
      10595                1.00000    
      10596                1.00000    
      10597                1.00000    
      10598                1.00000    
      10599                1.00000    
      10600                1.00000    
      10601                1.00000    
      10602                1.00000    
      10603                1.00000    
      10604                1.00000    
      10605                1.00000    
      10606                1.00000    
      10607                1.00000    
      10608                1.00000    
      10609                1.00000    
      10610                1.00000    
      10611                1.00000    
      10612                1.00000    
      10613                1.00000    
      10614                1.00000    
      10615                1.00000    
      10616                1.00000    
      10617                1.00000    
      10618                1.00000    
      10619                1.00000    
      10620                1.00000    
      10621                1.00000    
      10622                1.00000    
      10623                1.00000    
      10624                1.00000    
      10625                1.00000    
      10626                1.00000    
      10627                1.00000    
      10628                1.00000    
      10629                1.00000    
      10630                1.00000    
      10631                1.00000    
      10632                1.00000    
      10633                1.00000    
      10634                1.00000    
      10635                1.00000    
      10636                1.00000    
      10637                1.00000    
      10638                1.00000    
      10639                1.00000    
      10640                1.00000    
      10641                1.00000    
      10642                1.00000    
      10643                1.00000    
      10644                1.00000    
      10645                1.00000    
      10646                1.00000    
      10647                1.00000    
      10648                1.00000    
      10649                1.00000    
      10650                1.00000    
      10651                1.00000    
      10652                1.00000    
      10653                1.00000    
      10654                1.00000    
      10655                1.00000    
      10656                1.00000    
      10657                1.00000    
      10658                1.00000    
      10659                1.00000    
      10660                1.00000    
      10661                1.00000    
      10662                1.00000    
      10663                1.00000    
      10664                1.00000    
      10665                1.00000    
      10666                1.00000    
      10667                1.00000    
      10668                1.00000    
      10669                1.00000    
      10670                1.00000    
      10671                1.00000    
      10672                1.00000    
      10673                1.00000    
      10674                1.00000    
      10675                1.00000    
      10676                1.00000    
      10677                1.00000    
      10678                1.00000    
      10679                1.00000    
      10680                1.00000    
      10681                1.00000    
      10682                1.00000    
      10683                1.00000    
      10684                1.00000    
      10685                1.00000    
      10686                1.00000    
      10687                1.00000    
      10688                1.00000    
      10689                1.00000    
      10690                1.00000    
      10691                1.00000    
      10692                1.00000    
      10693                1.00000    
      10694                1.00000    
      10695                1.00000    
      10696                1.00000    
      10697                1.00000    
      10698                1.00000    
      10699                1.00000    
      10700                1.00000    
      10701                1.00000    
      10702                1.00000    
      10703                1.00000    
      10704                1.00000    
      10705                1.00000    
      10706                1.00000    
      10707                1.00000    
      10708                1.00000    
      10709                1.00000    
      10710                1.00000    
      10711                1.00000    
      10712                1.00000    
      10713                1.00000    
      10714                1.00000    
      10715                1.00000    
      10716                1.00000    
      10717                1.00000    
      10718                1.00000    
      10719                1.00000    
      10720                1.00000    
      10721                1.00000    
      10722                1.00000    
      10723                1.00000    
      10724                1.00000    
      10725                1.00000    
      10726                1.00000    
      10727                1.00000    
      10728                1.00000    
      10729                1.00000    
      10730                1.00000    
      10731                1.00000    
      10732                1.00000    
      10733                1.00000    
      10734                1.00000    
      10735                1.00000    
      10736                1.00000    
      10737                1.00000    
      10738                1.00000    
      10739                1.00000    
      10740                1.00000    
      10741                1.00000    
      10742                1.00000    
      10743                1.00000    
      10744                1.00000    
      10745                1.00000    
      10746                1.00000    
      10747                1.00000    
      10748                1.00000    
      10749                1.00000    
      10750                1.00000    
      10751                1.00000    
      10752                1.00000    
      10753                1.00000    
      10754                1.00000    
      10755                1.00000    
      10756                1.00000    
      10757                1.00000    
      10758                1.00000    
      10759                1.00000    
      10760                1.00000    
      10761                1.00000    
      10762                1.00000    
      10763                1.00000    
      10764                1.00000    
      10765                1.00000    
      10766                1.00000    
      10767                1.00000    
      10768                1.00000    
      10769                1.00000    
      10770                1.00000    
      10771                1.00000    
      10772                1.00000    
      10773                1.00000    
      10774                1.00000    
      10775                1.00000    
      10776                1.00000    
      10777                1.00000    
      10778                1.00000    
      10779                1.00000    
      10780                1.00000    
      10781                1.00000    
      10782                1.00000    
      10783                1.00000    
      10784                1.00000    
      10785                1.00000    
      10786                1.00000    
      10787                1.00000    
      10788                1.00000    
      10789                1.00000    
      10790                1.00000    
      10791                1.00000    
      10792                1.00000    
      10793                1.00000    
      10794                1.00000    
      10795                1.00000    
      10796                1.00000    
      10797                1.00000    
      10798                1.00000    
      10799                1.00000    
      10800                1.00000    
      10801                1.00000    
      10802                1.00000    
      10803                1.00000    
      10804                1.00000    
      10805                1.00000    
      10806                1.00000    
      10807                1.00000    
      10808                1.00000    
      10809                1.00000    
      10810                1.00000    
      10811                1.00000    
      10812                1.00000    
      10813                1.00000    
      10814                1.00000    
      10815                1.00000    
      10816                1.00000    
      10817                1.00000    
      10818                1.00000    
      10819                1.00000    
      10820                1.00000    
      10821                1.00000    
      10822                1.00000    
      10823                1.00000    
      10824                1.00000    
      10825                1.00000    
      10826                1.00000    
      10827                1.00000    
      10828                1.00000    
      10829                1.00000    
      10830                1.00000    
      10831                1.00000    
      10832                1.00000    
      10833                1.00000    
      10834                1.00000    
      10835                1.00000    
      10836                1.00000    
      10837                1.00000    
      10838                1.00000    
      10839                1.00000    
      10840                1.00000    
      10841                1.00000    
      10842                1.00000    
      10843                1.00000    
      10844                1.00000    
      10845                1.00000    
      10846                1.00000    
      10847                1.00000    
      10848                1.00000    
      10849                1.00000    
      10850                1.00000    
      10851                1.00000    
      10852                1.00000    
      10853                1.00000    
      10854                1.00000    
      10855                1.00000    
      10856                1.00000    
      10857                1.00000    
      10858                1.00000    
      10859                1.00000    
      10860                1.00000    
      10861                1.00000    
      10862                1.00000    
      10863                1.00000    
      10864                1.00000    
      10865                1.00000    
      10866                1.00000    
      10867                1.00000    
      10868                1.00000    
      10869                1.00000    
      10870                1.00000    
      10871                1.00000    
      10872                1.00000    
      10873                1.00000    
      10874                1.00000    
      10875                1.00000    
      10876                1.00000    
      10877                1.00000    
      10878                1.00000    
      10879                1.00000    
      10880                1.00000    
      10881                1.00000    
      10882                1.00000    
      10883                1.00000    
      10884                1.00000    
      10885                1.00000    
      10886                1.00000    
      10887                1.00000    
      10888                1.00000    
      10889                1.00000    
      10890                1.00000    
      10891                1.00000    
      10892                1.00000    
      10893                1.00000    
      10894                1.00000    
      10895                1.00000    
      10896                1.00000    
      10897                1.00000    
      10898                1.00000    
      10899                1.00000    
      10900                1.00000    
      10901                1.00000    
      10902                1.00000    
      10903                1.00000    
      10904                1.00000    
      10905                1.00000    
      10906                1.00000    
      10907                1.00000    
      10908                1.00000    
      10909                1.00000    
      10910                1.00000    
      10911                1.00000    
      10912                1.00000    
      10913                1.00000    
      10914                1.00000    
      10915                1.00000    
      10916                1.00000    
      10917                1.00000    
      10918                1.00000    
      10919                1.00000    
      10920                1.00000    
      10921                1.00000    
      10922                1.00000    
      10923                1.00000    
      10924                1.00000    
      10925                1.00000    
      10926                1.00000    
      10927                1.00000    
      10928                1.00000    
      10929                1.00000    
      10930                1.00000    
      10931                1.00000    
      10932                1.00000    
      10933                1.00000    
      10934                1.00000    
      10935                1.00000    
      10936                1.00000    
      10937                1.00000    
      10938                1.00000    
      10939                1.00000    
      10940                1.00000    
      10941                1.00000    
      10942                1.00000    
      10943                1.00000    
      10944                1.00000    
      10945                1.00000    
      10946                1.00000    
      10947                1.00000    
      10948                1.00000    
      10949                1.00000    
      10950                1.00000    
      10951                1.00000    
      10952                1.00000    
      10953                1.00000    
      10954                1.00000    
      10955                1.00000    
      10956                1.00000    
      10957                1.00000    
      10958                1.00000    
      10959                1.00000    
      10960                1.00000    
      10961                1.00000    
      10962                1.00000    
      10963                1.00000    
      10964                1.00000    
      10965                1.00000    
      10966                1.00000    
      10967                1.00000    
      10968                1.00000    
      10969                1.00000    
      10970                1.00000    
      10971                1.00000    
      10972                1.00000    
      10973                1.00000    
      10974                1.00000    
      10975                1.00000    
      10976                1.00000    
      10977                1.00000    
      10978                1.00000    
      10979                1.00000    
      10980                1.00000    
      10981                1.00000    
      10982                1.00000    
      10983                1.00000    
      10984                1.00000    
      10985                1.00000    
      10986                1.00000    
      10987                1.00000    
      10988                1.00000    
      10989                1.00000    
      10990                1.00000    
      10991                1.00000    
      10992                1.00000    
      10993                1.00000    
      10994                1.00000    
      10995                1.00000    
      10996                1.00000    
      10997                1.00000    
      10998                1.00000    
      10999                1.00000    
      11000                1.00000    
      11001                1.00000    
      11002                1.00000    
      11003                1.00000    
      11004                1.00000    
      11005                1.00000    
      11006                1.00000    
      11007                1.00000    
      11008                1.00000    
      11009                1.00000    
      11010                1.00000    
      11011                1.00000    
      11012                1.00000    
      11013                1.00000    
      11014                1.00000    
      11015                1.00000    
      11016                1.00000    
      11017                1.00000    
      11018                1.00000    
      11019                1.00000    
      11020                1.00000    
      11021                1.00000    
      11022                1.00000    
      11023                1.00000    
      11024                1.00000    
      11025                1.00000    
      11026                1.00000    
      11027                1.00000    
      11028                1.00000    
      11029                1.00000    
      11030                1.00000    
      11031                1.00000    
      11032                1.00000    
      11033                1.00000    
      11034                1.00000    
      11035                1.00000    
      11036                1.00000    
      11037                1.00000    
      11038                1.00000    
      11039                1.00000    
      11040                1.00000    
      11041                1.00000    
      11042                1.00000    
      11043                1.00000    
      11044                1.00000    
      11045                1.00000    
      11046                1.00000    
      11047                1.00000    
      11048                1.00000    
      11049                1.00000    
      11050                1.00000    
      11051                1.00000    
      11052                1.00000    
      11053                1.00000    
      11054                1.00000    
      11055                1.00000    
      11056                1.00000    
      11057                1.00000    
      11058                1.00000    
      11059                1.00000    
      11060                1.00000    
      11061                1.00000    
      11062                1.00000    
      11063                1.00000    
      11064                1.00000    
      11065                1.00000    
      11066                1.00000    
      11067                1.00000    
      11068                1.00000    
      11069                1.00000    
      11070                1.00000    
      11071                1.00000    
      11072                1.00000    
      11073                1.00000    
      11074                1.00000    
      11075                1.00000    
      11076                1.00000    
      11077                1.00000    
      11078                1.00000    
      11079                1.00000    
      11080                1.00000    
      11081                1.00000    
      11082                1.00000    
      11083                1.00000    
      11084                1.00000    
      11085                1.00000    
      11086                1.00000    
      11087                1.00000    
      11088                1.00000    
      11089                1.00000    
      11090                1.00000    
      11091                1.00000    
      11092                1.00000    
      11093                1.00000    
      11094                1.00000    
      11095                1.00000    
      11096                1.00000    
      11097                1.00000    
      11098                1.00000    
      11099                1.00000    
      11100                1.00000    
      11101                1.00000    
      11102                1.00000    
      11103                1.00000    
      11104                1.00000    
      11105                1.00000    
      11106                1.00000    
      11107                1.00000    
      11108                1.00000    
      11109                1.00000    
      11110                1.00000    
      11111                1.00000    
      11112                1.00000    
      11113                1.00000    
      11114                1.00000    
      11115                1.00000    
      11116                1.00000    
      11117                1.00000    
      11118                1.00000    
      11119                1.00000    
      11120                1.00000    
      11121                1.00000    
      11122                1.00000    
      11123                1.00000    
      11124                1.00000    
      11125                1.00000    
      11126                1.00000    
      11127                1.00000    
      11128                1.00000    
      11129                1.00000    
      11130                1.00000    
      11131                1.00000    
      11132                1.00000    
      11133                1.00000    
      11134                1.00000    
      11135                1.00000    
      11136                1.00000    
      11137                1.00000    
      11138                1.00000    
      11139                1.00000    
      11140                1.00000    
      11141                1.00000    
      11142                1.00000    
      11143                1.00000    
      11144                1.00000    
      11145                1.00000    
      11146                1.00000    
      11147                1.00000    
      11148                1.00000    
      11149                1.00000    
      11150                1.00000    
      11151                1.00000    
      11152                1.00000    
      11153                1.00000    
      11154                1.00000    
      11155                1.00000    
      11156                1.00000    
      11157                1.00000    
      11158                1.00000    
      11159                1.00000    
      11160                1.00000    
      11161                1.00000    
      11162                1.00000    
      11163                1.00000    
      11164                1.00000    
      11165                1.00000    
      11166                1.00000    
      11167                1.00000    
      11168                1.00000    
      11169                1.00000    
      11170                1.00000    
      11171                1.00000    
      11172                1.00000    
      11173                1.00000    
      11174                1.00000    
      11175                1.00000    
      11176                1.00000    
      11177                1.00000    
      11178                1.00000    
      11179                1.00000    
      11180                1.00000    
      11181                1.00000    
      11182                1.00000    
      11183                1.00000    
      11184                1.00000    
      11185                1.00000    
      11186                1.00000    
      11187                1.00000    
      11188                1.00000    
      11189                1.00000    
      11190                1.00000    
      11191                1.00000    
      11192                1.00000    
      11193                1.00000    
      11194                1.00000    
      11195                1.00000    
      11196                1.00000    
      11197                1.00000    
      11198                1.00000    
      11199                1.00000    
      11200                1.00000    
      11201                1.00000    
      11202                1.00000    
      11203                1.00000    
      11204                1.00000    
      11205                1.00000    
      11206                1.00000    
      11207                1.00000    
      11208                1.00000    
      11209                1.00000    
      11210                1.00000    
      11211                1.00000    
      11212                1.00000    
      11213                1.00000    
      11214                1.00000    
      11215                1.00000    
      11216                1.00000    
      11217                1.00000    
      11218                1.00000    
      11219                1.00000    
      11220                1.00000    
      11221                1.00000    
      11222                1.00000    
      11223                1.00000    
      11224                1.00000    
      11225                1.00000    
      11226                1.00000    
      11227                1.00000    
      11228                1.00000    
      11229                1.00000    
      11230                1.00000    
      11231                1.00000    
      11232                1.00000    
      11233                1.00000    
      11234                1.00000    
      11235                1.00000    
      11236                1.00000    
      11237                1.00000    
      11238                1.00000    
      11239                1.00000    
      11240                1.00000    
      11241                1.00000    
      11242                1.00000    
      11243                1.00000    
      11244                1.00000    
      11245                1.00000    
      11246                1.00000    
      11247                1.00000    
      11248                1.00000    
      11249                1.00000    
      11250                1.00000    
      11251                1.00000    
      11252                1.00000    
      11253                1.00000    
      11254                1.00000    
      11255                1.00000    
      11256                1.00000    
      11257                1.00000    
      11258                1.00000    
      11259                1.00000    
      11260                1.00000    
      11261                1.00000    
      11262                1.00000    
      11263                1.00000    
      11264                1.00000    
      11265                1.00000    
      11266                1.00000    
      11267                1.00000    
      11268                1.00000    
      11269                1.00000    
      11270                1.00000    
      11271                1.00000    
      11272                1.00000    
      11273                1.00000    
      11274                1.00000    
      11275                1.00000    
      11276                1.00000    
      11277                1.00000    
      11278                1.00000    
      11279                1.00000    
      11280                1.00000    
      11281                1.00000    
      11282                1.00000    
      11283                1.00000    
      11284                1.00000    
      11285                1.00000    
      11286                1.00000    
      11287                1.00000    
      11288                1.00000    
      11289                1.00000    
      11290                1.00000    
      11291                1.00000    
      11292                1.00000    
      11293                1.00000    
      11294                1.00000    
      11295                1.00000    
      11296                1.00000    
      11297                1.00000    
      11298                1.00000    
      11299                1.00000    
      11300                1.00000    
      11301                1.00000    
      11302                1.00000    
      11303                1.00000    
      11304                1.00000    
      11305                1.00000    
      11306                1.00000    
      11307                1.00000    
      11308                1.00000    
      11309                1.00000    
      11310                1.00000    
      11311                1.00000    
      11312                1.00000    
      11313                1.00000    
      11314                1.00000    
      11315                1.00000    
      11316                1.00000    
      11317                1.00000    
      11318                1.00000    
      11319                1.00000    
      11320                1.00000    
      11321                1.00000    
      11322                1.00000    
      11323                1.00000    
      11324                1.00000    
      11325                1.00000    
      11326                1.00000    
      11327                1.00000    
      11328                1.00000    
      11329                1.00000    
      11330                1.00000    
      11331                1.00000    
      11332                1.00000    
      11333                1.00000    
      11334                1.00000    
      11335                1.00000    
      11336                1.00000    
      11337                1.00000    
      11338                1.00000    
      11339                1.00000    
      11340                1.00000    
      11341                1.00000    
      11342                1.00000    
      11343                1.00000    
      11344                1.00000    
      11345                1.00000    
      11346                1.00000    
      11347                1.00000    
      11348                1.00000    
      11349                1.00000    
      11350                1.00000    
      11351                1.00000    
      11352                1.00000    
      11353                1.00000    
      11354                1.00000    
      11355                1.00000    
      11356                1.00000    
      11357                1.00000    
      11358                1.00000    
      11359                1.00000    
      11360                1.00000    
      11361                1.00000    
      11362                1.00000    
      11363                1.00000    
      11364                1.00000    
      11365                1.00000    
      11366                1.00000    
      11367                1.00000    
      11368                1.00000    
      11369                1.00000    
      11370                1.00000    
      11371                1.00000    
      11372                1.00000    
      11373                1.00000    
      11374                1.00000    
      11375                1.00000    
      11376                1.00000    
      11377                1.00000    
      11378                1.00000    
      11379                1.00000    
      11380                1.00000    
      11381                1.00000    
      11382                1.00000    
      11383                1.00000    
      11384                1.00000    
      11385                1.00000    
      11386                1.00000    
      11387                1.00000    
      11388                1.00000    
      11389                1.00000    
      11390                1.00000    
      11391                1.00000    
      11392                1.00000    
      11393                1.00000    
      11394                1.00000    
      11395                1.00000    
      11396                1.00000    
      11397                1.00000    
      11398                1.00000    
      11399                1.00000    
      11400                1.00000    
      11401                1.00000    
      11402                1.00000    
      11403                1.00000    
      11404                1.00000    
      11405                1.00000    
      11406                1.00000    
      11407                1.00000    
      11408                1.00000    
      11409                1.00000    
      11410                1.00000    
      11411                1.00000    
      11412                1.00000    
      11413                1.00000    
      11414                1.00000    
      11415                1.00000    
      11416                1.00000    
      11417                1.00000    
      11418                1.00000    
      11419                1.00000    
      11420                1.00000    
      11421                1.00000    
      11422                1.00000    
      11423                1.00000    
      11424                1.00000    
      11425                1.00000    
      11426                1.00000    
      11427                1.00000    
      11428                1.00000    
      11429                1.00000    
      11430                1.00000    
      11431                1.00000    
      11432                1.00000    
      11433                1.00000    
      11434                1.00000    
      11435                1.00000    
      11436                1.00000    
      11437                1.00000    
      11438                1.00000    
      11439                1.00000    
      11440                1.00000    
      11441                1.00000    
      11442                1.00000    
      11443                1.00000    
      11444                1.00000    
      11445                1.00000    
      11446                1.00000    
      11447                1.00000    
      11448                1.00000    
      11449                1.00000    
      11450                1.00000    
      11451                1.00000    
      11452                1.00000    
      11453                1.00000    
      11454                1.00000    
      11455                1.00000    
      11456                1.00000    
      11457                1.00000    
      11458                1.00000    
      11459                1.00000    
      11460                1.00000    
      11461                1.00000    
      11462                1.00000    
      11463                1.00000    
      11464                1.00000    
      11465                1.00000    
      11466                1.00000    
      11467                1.00000    
      11468                1.00000    
      11469                1.00000    
      11470                1.00000    
      11471                1.00000    
      11472                1.00000    
      11473                1.00000    
      11474                1.00000    
      11475                1.00000    
      11476                1.00000    
      11477                1.00000    
      11478                1.00000    
      11479                1.00000    
      11480                1.00000    
      11481                1.00000    
      11482                1.00000    
      11483                1.00000    
      11484                1.00000    
      11485                1.00000    
      11486                1.00000    
      11487                1.00000    
      11488                1.00000    
      11489                1.00000    
      11490                1.00000    
      11491                1.00000    
      11492                1.00000    
      11493                1.00000    
      11494                1.00000    
      11495                1.00000    
      11496                1.00000    
      11497                1.00000    
      11498                1.00000    
      11499                1.00000    
      11500                1.00000    
      11501                1.00000    
      11502                1.00000    
      11503                1.00000    
      11504                1.00000    
      11505                1.00000    
      11506                1.00000    
      11507                1.00000    
      11508                1.00000    
      11509                1.00000    
      11510                1.00000    
      11511                1.00000    
      11512                1.00000    
      11513                1.00000    
      11514                1.00000    
      11515                1.00000    
      11516                1.00000    
      11517                1.00000    
      11518                1.00000    
      11519                1.00000    
      11520                1.00000    
      11521                1.00000    
      11522                1.00000    
      11523                1.00000    
      11524                1.00000    
      11525                1.00000    
      11526                1.00000    
      11527                1.00000    
      11528                1.00000    
      11529                1.00000    
      11530                1.00000    
      11531                1.00000    
      11532                1.00000    
      11533                1.00000    
      11534                1.00000    
      11535                1.00000    
      11536                1.00000    
      11537                1.00000    
      11538                1.00000    
      11539                1.00000    
      11540                1.00000    
      11541                1.00000    
      11542                1.00000    
      11543                1.00000    
      11544                1.00000    
      11545                1.00000    
      11546                1.00000    
      11547                1.00000    
      11548                1.00000    
      11549                1.00000    
      11550                1.00000    
      11551                1.00000    
      11552                1.00000    
      11553                1.00000    
      11554                1.00000    
      11555                1.00000    
      11556                1.00000    
      11557                1.00000    
      11558                1.00000    
      11559                1.00000    
      11560                1.00000    
      11561                1.00000    
      11562                1.00000    
      11563                1.00000    
      11564                1.00000    
      11565                1.00000    
      11566                1.00000    
      11567                1.00000    
      11568                1.00000    
      11569                1.00000    
      11570                1.00000    
      11571                1.00000    
      11572                1.00000    
      11573                1.00000    
      11574                1.00000    
      11575                1.00000    
      11576                1.00000    
      11577                1.00000    
      11578                1.00000    
      11579                1.00000    
      11580                1.00000    
      11581                1.00000    
      11582                1.00000    
      11583                1.00000    
      11584                1.00000    
      11585                1.00000    
      11586                1.00000    
      11587                1.00000    
      11588                1.00000    
      11589                1.00000    
      11590                1.00000    
      11591                1.00000    
      11592                1.00000    
      11593                1.00000    
      11594                1.00000    
      11595                1.00000    
      11596                1.00000    
      11597                1.00000    
      11598                1.00000    
      11599                1.00000    
      11600                1.00000    
      11601                1.00000    
      11602                1.00000    
      11603                1.00000    
      11604                1.00000    
      11605                1.00000    
      11606                1.00000    
      11607                1.00000    
      11608                1.00000    
      11609                1.00000    
      11610                1.00000    
      11611                1.00000    
      11612                1.00000    
      11613                1.00000    
      11614                1.00000    
      11615                1.00000    
      11616                1.00000    
      11617                1.00000    
      11618                1.00000    
      11619                1.00000    
      11620                1.00000    
      11621                1.00000    
      11622                1.00000    
      11623                1.00000    
      11624                1.00000    
      11625                1.00000    
      11626                1.00000    
      11627                1.00000    
      11628                1.00000    
      11629                1.00000    
      11630                1.00000    
      11631                1.00000    
      11632                1.00000    
      11633                1.00000    
      11634                1.00000    
      11635                1.00000    
      11636                1.00000    
      11637                1.00000    
      11638                1.00000    
      11639                1.00000    
      11640                1.00000    
      11641                1.00000    
      11642                1.00000    
      11643                1.00000    
      11644                1.00000    
      11645                1.00000    
      11646                1.00000    
      11647                1.00000    
      11648                1.00000    
      11649                1.00000    
      11650                1.00000    
      11651                1.00000    
      11652                1.00000    
      11653                1.00000    
      11654                1.00000    
      11655                1.00000    
      11656                1.00000    
      11657                1.00000    
      11658                1.00000    
      11659                1.00000    
      11660                1.00000    
      11661                1.00000    
      11662                1.00000    
      11663                1.00000    
      11664                1.00000    
      11665                1.00000    
      11666                1.00000    
      11667                1.00000    
      11668                1.00000    
      11669                1.00000    
      11670                1.00000    
      11671                1.00000    
      11672                1.00000    
      11673                1.00000    
      11674                1.00000    
      11675                1.00000    
      11676                1.00000    
      11677                1.00000    
      11678                1.00000    
      11679                1.00000    
      11680                1.00000    
      11681                1.00000    
      11682                1.00000    
      11683                1.00000    
      11684                1.00000    
      11685                1.00000    
      11686                1.00000    
      11687                1.00000    
      11688                1.00000    
      11689                1.00000    
      11690                1.00000    
      11691                1.00000    
      11692                1.00000    
      11693                1.00000    
      11694                1.00000    
      11695                1.00000    
      11696                1.00000    
      11697                1.00000    
      11698                1.00000    
      11699                1.00000    
      11700                1.00000    
      11701                1.00000    
      11702                1.00000    
      11703                1.00000    
      11704                1.00000    
      11705                1.00000    
      11706                1.00000    
      11707                1.00000    
      11708                1.00000    
      11709                1.00000    
      11710                1.00000    
      11711                1.00000    
      11712                1.00000    
      11713                1.00000    
      11714                1.00000    
      11715                1.00000    
      11716                1.00000    
      11717                1.00000    
      11718                1.00000    
      11719                1.00000    
      11720                1.00000    
      11721                1.00000    
      11722                1.00000    
      11723                1.00000    
      11724                1.00000    
      11725                1.00000    
      11726                1.00000    
      11727                1.00000    
      11728                1.00000    
      11729                1.00000    
      11730                1.00000    
      11731                1.00000    
      11732                1.00000    
      11733                1.00000    
      11734                1.00000    
      11735                1.00000    
      11736                1.00000    
      11737                1.00000    
      11738                1.00000    
      11739                1.00000    
      11740                1.00000    
      11741                1.00000    
      11742                1.00000    
      11743                1.00000    
      11744                1.00000    
      11745                1.00000    
      11746                1.00000    
      11747                1.00000    
      11748                1.00000    
      11749                1.00000    
      11750                1.00000    
      11751                1.00000    
      11752                1.00000    
      11753                1.00000    
      11754                1.00000    
      11755                1.00000    
      11756                1.00000    
      11757                1.00000    
      11758                1.00000    
      11759                1.00000    
      11760                1.00000    
      11761                1.00000    
      11762                1.00000    
      11763                1.00000    
      11764                1.00000    
      11765                1.00000    
      11766                1.00000    
      11767                1.00000    
      11768                1.00000    
      11769                1.00000    
      11770                1.00000    
      11771                1.00000    
      11772                1.00000    
      11773                1.00000    
      11774                1.00000    
      11775                1.00000    
      11776                1.00000    
      11777                1.00000    
      11778                1.00000    
      11779                1.00000    
      11780                1.00000    
      11781                1.00000    
      11782                1.00000    
      11783                1.00000    
      11784                1.00000    
      11785                1.00000    
      11786                1.00000    
      11787                1.00000    
      11788                1.00000    
      11789                1.00000    
      11790                1.00000    
      11791                1.00000    
      11792                1.00000    
      11793                1.00000    
      11794                1.00000    
      11795                1.00000    
      11796                1.00000    
      11797                1.00000    
      11798                1.00000    
      11799                1.00000    
      11800                1.00000    
      11801                1.00000    
      11802                1.00000    
      11803                1.00000    
      11804                1.00000    
      11805                1.00000    
      11806                1.00000    
      11807                1.00000    
      11808                1.00000    
      11809                1.00000    
      11810                1.00000    
      11811                1.00000    
      11812                1.00000    
      11813                1.00000    
      11814                1.00000    
      11815                1.00000    
      11816                1.00000    
      11817                1.00000    
      11818                1.00000    
      11819                1.00000    
      11820                1.00000    
      11821                1.00000    
      11822                1.00000    
      11823                1.00000    
      11824                1.00000    
      11825                1.00000    
      11826                1.00000    
      11827                1.00000    
      11828                1.00000    
      11829                1.00000    
      11830                1.00000    
      11831                1.00000    
      11832                1.00000    
      11833                1.00000    
      11834                1.00000    
      11835                1.00000    
      11836                1.00000    
      11837                1.00000    
      11838                1.00000    
      11839                1.00000    
      11840                1.00000    
      11841                1.00000    
      11842                1.00000    
      11843                1.00000    
      11844                1.00000    
      11845                1.00000    
      11846                1.00000    
      11847                1.00000    
      11848                1.00000    
      11849                1.00000    
      11850                1.00000    
      11851                1.00000    
      11852                1.00000    
      11853                1.00000    
      11854                1.00000    
      11855                1.00000    
      11856                1.00000    
      11857                1.00000    
      11858                1.00000    
      11859                1.00000    
      11860                1.00000    
      11861                1.00000    
      11862                1.00000    
      11863                1.00000    
      11864                1.00000    
      11865                1.00000    
      11866                1.00000    
      11867                1.00000    
      11868                1.00000    
      11869                1.00000    
      11870                1.00000    
      11871                1.00000    
      11872                1.00000    
      11873                1.00000    
      11874                1.00000    
      11875                1.00000    
      11876                1.00000    
      11877                1.00000    
      11878                1.00000    
      11879                1.00000    
      11880                1.00000    
      11881                1.00000    
      11882                1.00000    
      11883                1.00000    
      11884                1.00000    
      11885                1.00000    
      11886                1.00000    
      11887                1.00000    
      11888                1.00000    
      11889                1.00000    
      11890                1.00000    
      11891                1.00000    
      11892                1.00000    
      11893                1.00000    
      11894                1.00000    
      11895                1.00000    
      11896                1.00000    
      11897                1.00000    
      11898                1.00000    
      11899                1.00000    
      11900                1.00000    
      11901                1.00000    
      11902                1.00000    
      11903                1.00000    
      11904                1.00000    
      11905                1.00000    
      11906                1.00000    
      11907                1.00000    
      11908                1.00000    
      11909                1.00000    
      11910                1.00000    
      11911                1.00000    
      11912                1.00000    
      11913                1.00000    
      11914                1.00000    
      11915                1.00000    
      11916                1.00000    
      11917                1.00000    
      11918                1.00000    
      11919                1.00000    
      11920                1.00000    
      11921                1.00000    
      11922                1.00000    
      11923                1.00000    
      11924                1.00000    
      11925                1.00000    
      11926                1.00000    
      11927                1.00000    
      11928                1.00000    
      11929                1.00000    
      11930                1.00000    
      11931                1.00000    
      11932                1.00000    
      11933                1.00000    
      11934                1.00000    
      11935                1.00000    
      11936                1.00000    
      11937                1.00000    
      11938                1.00000    
      11939                1.00000    
      11940                1.00000    
      11941                1.00000    
      11942                1.00000    
      11943                1.00000    
      11944                1.00000    
      11945                1.00000    
      11946                1.00000    
      11947                1.00000    
      11948                1.00000    
      11949                1.00000    
      11950                1.00000    
      11951                1.00000    
      11952                1.00000    
      11953                1.00000    
      11954                1.00000    
      11955                1.00000    
      11956                1.00000    
      11957                1.00000    
      11958                1.00000    
      11959                1.00000    
      11960                1.00000    
      11961                1.00000    
      11962                1.00000    
      11963                1.00000    
      11964                1.00000    
      11965                1.00000    
      11966                1.00000    
      11967                1.00000    
      11968                1.00000    
      11969                1.00000    
      11970                1.00000    
      11971                1.00000    
      11972                1.00000    
      11973                1.00000    
      11974                1.00000    
      11975                1.00000    
      11976                1.00000    
      11977                1.00000    
      11978                1.00000    
      11979                1.00000    
      11980                1.00000    
      11981                1.00000    
      11982                1.00000    
      11983                1.00000    
      11984                1.00000    
      11985                1.00000    
      11986                1.00000    
      11987                1.00000    
      11988                1.00000    
      11989                1.00000    
      11990                1.00000    
      11991                1.00000    
      11992                1.00000    
      11993                1.00000    
      11994                1.00000    
      11995                1.00000    
      11996                1.00000    
      11997                1.00000    
      11998                1.00000    
      11999                1.00000    
      12000                1.00000    
      12001                1.00000    
      12002                1.00000    
      12003                1.00000    
      12004                1.00000    
      12005                1.00000    
      12006                1.00000    
      12007                1.00000    
      12008                1.00000    
      12009                1.00000    
      12010                1.00000    
      12011                1.00000    
      12012                1.00000    
      12013                1.00000    
      12014                1.00000    
      12015                1.00000    
      12016                1.00000    
      12017                1.00000    
      12018                1.00000    
      12019                1.00000    
      12020                1.00000    
      12021                1.00000    
      12022                1.00000    
      12023                1.00000    
      12024                1.00000    
      12025                1.00000    
      12026                1.00000    
      12027                1.00000    
      12028                1.00000    
      12029                1.00000    
      12030                1.00000    
      12031                1.00000    
      12032                1.00000    
      12033                1.00000    
      12034                1.00000    
      12035                1.00000    
      12036                1.00000    
      12037                1.00000    
      12038                1.00000    
      12039                1.00000    
      12040                1.00000    
      12041                1.00000    
      12042                1.00000    
      12043                1.00000    
      12044                1.00000    
      12045                1.00000    
      12046                1.00000    
      12047                1.00000    
      12048                1.00000    
      12049                1.00000    
      12050                1.00000    
      12051                1.00000    
      12052                1.00000    
      12053                1.00000    
      12054                1.00000    
      12055                1.00000    
      12056                1.00000    
      12057                1.00000    
      12058                1.00000    
      12059                1.00000    
      12060                1.00000    
      12061                1.00000    
      12062                1.00000    
      12063                1.00000    
      12064                1.00000    
      12065                1.00000    
      12066                1.00000    
      12067                1.00000    
      12068                1.00000    
      12069                1.00000    
      12070                1.00000    
      12071                1.00000    
      12072                1.00000    
      12073                1.00000    
      12074                1.00000    
      12075                1.00000    
      12076                1.00000    
      12077                1.00000    
      12078                1.00000    
      12079                1.00000    
      12080                1.00000    
      12081                1.00000    
      12082                1.00000    
      12083                1.00000    
      12084                1.00000    
      12085                1.00000    
      12086                1.00000    
      12087                1.00000    
      12088                1.00000    
      12089                1.00000    
      12090                1.00000    
      12091                1.00000    
      12092                1.00000    
      12093                1.00000    
      12094                1.00000    
      12095                1.00000    
      12096                1.00000    
      12097                1.00000    
      12098                1.00000    
      12099                1.00000    
      12100                1.00000    
      12101                1.00000    
      12102                1.00000    
      12103                1.00000    
      12104                1.00000    
      12105                1.00000    
      12106                1.00000    
      12107                1.00000    
      12108                1.00000    
      12109                1.00000    
      12110                1.00000    
      12111                1.00000    
      12112                1.00000    
      12113                1.00000    
      12114                1.00000    
      12115                1.00000    
      12116                1.00000    
      12117                1.00000    
      12118                1.00000    
      12119                1.00000    
      12120                1.00000    
      12121                1.00000    
      12122                1.00000    
      12123                1.00000    
      12124                1.00000    
      12125                1.00000    
      12126                1.00000    
      12127                1.00000    
      12128                1.00000    
      12129                1.00000    
      12130                1.00000    
      12131                1.00000    
      12132                1.00000    
      12133                1.00000    
      12134                1.00000    
      12135                1.00000    
      12136                1.00000    
      12137                1.00000    
      12138                1.00000    
      12139                1.00000    
      12140                1.00000    
      12141                1.00000    
      12142                1.00000    
      12143                1.00000    
      12144                1.00000    
      12145                1.00000    
      12146                1.00000    
      12147                1.00000    
      12148                1.00000    
      12149                1.00000    
      12150                1.00000    
      12151                1.00000    
      12152                1.00000    
      12153                1.00000    
      12154                1.00000    
      12155                1.00000    
      12156                1.00000    
      12157                1.00000    
      12158                1.00000    
      12159                1.00000    
      12160                1.00000    
      12161                1.00000    
      12162                1.00000    
      12163                1.00000    
      12164                1.00000    
      12165                1.00000    
      12166                1.00000    
      12167                1.00000    
      12168                1.00000    
      12169                1.00000    
      12170                1.00000    
      12171                1.00000    
      12172                1.00000    
      12173                1.00000    
      12174                1.00000    
      12175                1.00000    
      12176                1.00000    
      12177                1.00000    
      12178                1.00000    
      12179                1.00000    
      12180                1.00000    
      12181                1.00000    
      12182                1.00000    
      12183                1.00000    
      12184                1.00000    
      12185                1.00000    
      12186                1.00000    
      12187                1.00000    
      12188                1.00000    
      12189                1.00000    
      12190                1.00000    
      12191                1.00000    
      12192                1.00000    
      12193                1.00000    
      12194                1.00000    
      12195                1.00000    
      12196                1.00000    
      12197                1.00000    
      12198                1.00000    
      12199                1.00000    
      12200                1.00000    
      12201                1.00000    
      12202                1.00000    
      12203                1.00000    
      12204                1.00000    
      12205                1.00000    
      12206                1.00000    
      12207                1.00000    
      12208                1.00000    
      12209                1.00000    
      12210                1.00000    
      12211                1.00000    
      12212                1.00000    
      12213                1.00000    
      12214                1.00000    
      12215                1.00000    
      12216                1.00000    
      12217                1.00000    
      12218                1.00000    
      12219                1.00000    
      12220                1.00000    
      12221                1.00000    
      12222                1.00000    
      12223                1.00000    
      12224                1.00000    
      12225                1.00000    
      12226                1.00000    
      12227                1.00000    
      12228                1.00000    
      12229                1.00000    
      12230                1.00000    
      12231                1.00000    
      12232                1.00000    
      12233                1.00000    
      12234                1.00000    
      12235                1.00000    
      12236                1.00000    
      12237                1.00000    
      12238                1.00000    
      12239                1.00000    
      12240                1.00000    
      12241                1.00000    
      12242                1.00000    
      12243                1.00000    
      12244                1.00000    
      12245                1.00000    
      12246                1.00000    
      12247                1.00000    
      12248                1.00000    
      12249                1.00000    
      12250                1.00000    
      12251                1.00000    
      12252                1.00000    
      12253                1.00000    
      12254                1.00000    
      12255                1.00000    
      12256                1.00000    
      12257                1.00000    
      12258                1.00000    
      12259                1.00000    
      12260                1.00000    
      12261                1.00000    
      12262                1.00000    
      12263                1.00000    
      12264                1.00000    
      12265                1.00000    
      12266                1.00000    
      12267                1.00000    
      12268                1.00000    
      12269                1.00000    
      12270                1.00000    
      12271                1.00000    
      12272                1.00000    
      12273                1.00000    
      12274                1.00000    
      12275                1.00000    
      12276                1.00000    
      12277                1.00000    
      12278                1.00000    
      12279                1.00000    
      12280                1.00000    
      12281                1.00000    
      12282                1.00000    
      12283                1.00000    
      12284                1.00000    
      12285                1.00000    
      12286                1.00000    
      12287                1.00000    
      12288                1.00000    
      12289                1.00000    
      12290                1.00000    
      12291                1.00000    
      12292                1.00000    
      12293                1.00000    
      12294                1.00000    
      12295                1.00000    
      12296                1.00000    
      12297                1.00000    
      12298                1.00000    
      12299                1.00000    
      12300                1.00000    
      12301                1.00000    
      12302                1.00000    
      12303                1.00000    
      12304                1.00000    
      12305                1.00000    
      12306                1.00000    
      12307                1.00000    
      12308                1.00000    
      12309                1.00000    
      12310                1.00000    
      12311                1.00000    
      12312                1.00000    
      12313                1.00000    
      12314                1.00000    
      12315                1.00000    
      12316                1.00000    
      12317                1.00000    
      12318                1.00000    
      12319                1.00000    
      12320                1.00000    
      12321                1.00000    
      12322                1.00000    
      12323                1.00000    
      12324                1.00000    
      12325                1.00000    
      12326                1.00000    
      12327                1.00000    
      12328                1.00000    
      12329                1.00000    
      12330                1.00000    
      12331                1.00000    
      12332                1.00000    
      12333                1.00000    
      12334                1.00000    
      12335                1.00000    
      12336                1.00000    
      12337                1.00000    
      12338                1.00000    
      12339                1.00000    
      12340                1.00000    
      12341                1.00000    
      12342                1.00000    
      12343                1.00000    
      12344                1.00000    
      12345                1.00000    
      12346                1.00000    
      12347                1.00000    
      12348                1.00000    
      12349                1.00000    
      12350                1.00000    
      12351                1.00000    
      12352                1.00000    
      12353                1.00000    
      12354                1.00000    
      12355                1.00000    
      12356                1.00000    
      12357                1.00000    
      12358                1.00000    
      12359                1.00000    
      12360                1.00000    
      12361                1.00000    
      12362                1.00000    
      12363                1.00000    
      12364                1.00000    
      12365                1.00000    
      12366                1.00000    
      12367                1.00000    
      12368                1.00000    
      12369                1.00000    
      12370                1.00000    
      12371                1.00000    
      12372                1.00000    
      12373                1.00000    
      12374                1.00000    
      12375                1.00000    
      12376                1.00000    
      12377                1.00000    
      12378                1.00000    
      12379                1.00000    
      12380                1.00000    
      12381                1.00000    
      12382                1.00000    
      12383                1.00000    
      12384                1.00000    
      12385                1.00000    
      12386                1.00000    
      12387                1.00000    
      12388                1.00000    
      12389                1.00000    
      12390                1.00000    
      12391                1.00000    
      12392                1.00000    
      12393                1.00000    
      12394                1.00000    
      12395                1.00000    
      12396                1.00000    
      12397                1.00000    
      12398                1.00000    
      12399                1.00000    
      12400                1.00000    
      12401                1.00000    
      12402                1.00000    
      12403                1.00000    
      12404                1.00000    
      12405                1.00000    
      12406                1.00000    
      12407                1.00000    
      12408                1.00000    
      12409                1.00000    
      12410                1.00000    
      12411                1.00000    
      12412                1.00000    
      12413                1.00000    
      12414                1.00000    
      12415                1.00000    
      12416                1.00000    
      12417                1.00000    
      12418                1.00000    
      12419                1.00000    
      12420                1.00000    
      12421                1.00000    
      12422                1.00000    
      12423                1.00000    
      12424                1.00000    
      12425                1.00000    
      12426                1.00000    
      12427                1.00000    
      12428                1.00000    
      12429                1.00000    
      12430                1.00000    
      12431                1.00000    
      12432                1.00000    
      12433                1.00000    
      12434                1.00000    
      12435                1.00000    
      12436                1.00000    
      12437                1.00000    
      12438                1.00000    
      12439                1.00000    
      12440                1.00000    
      12441                1.00000    
      12442                1.00000    
      12443                1.00000    
      12444                1.00000    
      12445                1.00000    
      12446                1.00000    
      12447                1.00000    
      12448                1.00000    
      12449                1.00000    
      12450                1.00000    
      12451                1.00000    
      12452                1.00000    
      12453                1.00000    
      12454                1.00000    
      12455                1.00000    
      12456                1.00000    
      12457                1.00000    
      12458                1.00000    
      12459                1.00000    
      12460                1.00000    
      12461                1.00000    
      12462                1.00000    
      12463                1.00000    
      12464                1.00000    
      12465                1.00000    
      12466                1.00000    
      12467                1.00000    
      12468                1.00000    
      12469                1.00000    
      12470                1.00000    
      12471                1.00000    
      12472                1.00000    
      12473                1.00000    
      12474                1.00000    
      12475                1.00000    
      12476                1.00000    
      12477                1.00000    
      12478                1.00000    
      12479                1.00000    
      12480                1.00000    
      12481                1.00000    
      12482                1.00000    
      12483                1.00000    
      12484                1.00000    
      12485                1.00000    
      12486                1.00000    
      12487                1.00000    
      12488                1.00000    
      12489                1.00000    
      12490                1.00000    
      12491                1.00000    
      12492                1.00000    
      12493                1.00000    
      12494                1.00000    
      12495                1.00000    
      12496                1.00000    
      12497                1.00000    
      12498                1.00000    
      12499                1.00000    
      12500                1.00000    
      12501                1.00000    
      12502                1.00000    
      12503                1.00000    
      12504                1.00000    
      12505                1.00000    
      12506                1.00000    
      12507                1.00000    
      12508                1.00000    
      12509                1.00000    
      12510                1.00000    
      12511                1.00000    
      12512                1.00000    
      12513                1.00000    
      12514                1.00000    
      12515                1.00000    
      12516                1.00000    
      12517                1.00000    
      12518                1.00000    
      12519                1.00000    
      12520                1.00000    
      12521                1.00000    
      12522                1.00000    
      12523                1.00000    
      12524                1.00000    
      12525                1.00000    
      12526                1.00000    
      12527                1.00000    
      12528                1.00000    
      12529                1.00000    
      12530                1.00000    
      12531                1.00000    
      12532                1.00000    
      12533                1.00000    
      12534                1.00000    
      12535                1.00000    
      12536                1.00000    
      12537                1.00000    
      12538                1.00000    
      12539                1.00000    
      12540                1.00000    
      12541                1.00000    
      12542                1.00000    
      12543                1.00000    
      12544                1.00000    
      12545                1.00000    
      12546                1.00000    
      12547                1.00000    
      12548                1.00000    
      12549                1.00000    
      12550                1.00000    
      12551                1.00000    
      12552                1.00000    
      12553                1.00000    
      12554                1.00000    
      12555                1.00000    
      12556                1.00000    
      12557                1.00000    
      12558                1.00000    
      12559                1.00000    
      12560                1.00000    
      12561                1.00000    
      12562                1.00000    
      12563                1.00000    
      12564                1.00000    
      12565                1.00000    
      12566                1.00000    
      12567                1.00000    
      12568                1.00000    
      12569                1.00000    
      12570                1.00000    
      12571                1.00000    
      12572                1.00000    
      12573                1.00000    
      12574                1.00000    
      12575                1.00000    
      12576                1.00000    
      12577                1.00000    
      12578                1.00000    
      12579                1.00000    
      12580                1.00000    
      12581                1.00000    
      12582                1.00000    
      12583                1.00000    
      12584                1.00000    
      12585                1.00000    
      12586                1.00000    
      12587                1.00000    
      12588                1.00000    
      12589                1.00000    
      12590                1.00000    
      12591                1.00000    
      12592                1.00000    
      12593                1.00000    
      12594                1.00000    
      12595                1.00000    
      12596                1.00000    
      12597                1.00000    
      12598                1.00000    
      12599                1.00000    
      12600                1.00000    
      12601                1.00000    
      12602                1.00000    
      12603                1.00000    
      12604                1.00000    
      12605                1.00000    
      12606                1.00000    
      12607                1.00000    
      12608                1.00000    
      12609                1.00000    
      12610                1.00000    
      12611                1.00000    
      12612                1.00000    
      12613                1.00000    
      12614                1.00000    
      12615                1.00000    
      12616                1.00000    
      12617                1.00000    
      12618                1.00000    
      12619                1.00000    
      12620                1.00000    
      12621                1.00000    
      12622                1.00000    
      12623                1.00000    
      12624                1.00000    
      12625                1.00000    
      12626                1.00000    
      12627                1.00000    
      12628                1.00000    
      12629                1.00000    
      12630                1.00000    
      12631                1.00000    
      12632                1.00000    
      12633                1.00000    
      12634                1.00000    
      12635                1.00000    
      12636                1.00000    
      12637                1.00000    
      12638                1.00000    
      12639                1.00000    
      12640                1.00000    
      12641                1.00000    
      12642                1.00000    
      12643                1.00000    
      12644                1.00000    
      12645                1.00000    
      12646                1.00000    
      12647                1.00000    
      12648                1.00000    
      12649                1.00000    
      12650                1.00000    
      12651                1.00000    
      12652                1.00000    
      12653                1.00000    
      12654                1.00000    
      12655                1.00000    
      12656                1.00000    
      12657                1.00000    
      12658                1.00000    
      12659                1.00000    
      12660                1.00000    
      12661                1.00000    
      12662                1.00000    
      12663                1.00000    
      12664                1.00000    
      12665                1.00000    
      12666                1.00000    
      12667                1.00000    
      12668                1.00000    
      12669                1.00000    
      12670                1.00000    
      12671                1.00000    
      12672                1.00000    
      12673                1.00000    
      12674                1.00000    
      12675                1.00000    
      12676                1.00000    
      12677                1.00000    
      12678                1.00000    
      12679                1.00000    
      12680                1.00000    
      12681                1.00000    
      12682                1.00000    
      12683                1.00000    
      12684                1.00000    
      12685                1.00000    
      12686                1.00000    
      12687                1.00000    
      12688                1.00000    
      12689                1.00000    
      12690                1.00000    
      12691                1.00000    
      12692                1.00000    
      12693                1.00000    
      12694                1.00000    
      12695                1.00000    
      12696                1.00000    
      12697                1.00000    
      12698                1.00000    
      12699                1.00000    
      12700                1.00000    
      12701                1.00000    
      12702                1.00000    
      12703                1.00000    
      12704                1.00000    
      12705                1.00000    
      12706                1.00000    
      12707                1.00000    
      12708                1.00000    
      12709                1.00000    
      12710                1.00000    
      12711                1.00000    
      12712                1.00000    
      12713                1.00000    
      12714                1.00000    
      12715                1.00000    
      12716                1.00000    
      12717                1.00000    
      12718                1.00000    
      12719                1.00000    
      12720                1.00000    
      12721                1.00000    
      12722                1.00000    
      12723                1.00000    
      12724                1.00000    
      12725                1.00000    
      12726                1.00000    
      12727                1.00000    
      12728                1.00000    
      12729                1.00000    
      12730                1.00000    
      12731                1.00000    
      12732                1.00000    
      12733                1.00000    
      12734                1.00000    
      12735                1.00000    
      12736                1.00000    
      12737                1.00000    
      12738                1.00000    
      12739                1.00000    
      12740                1.00000    
      12741                1.00000    
      12742                1.00000    
      12743                1.00000    
      12744                1.00000    
      12745                1.00000    
      12746                1.00000    
      12747                1.00000    
      12748                1.00000    
      12749                1.00000    
      12750                1.00000    
      12751                1.00000    
      12752                1.00000    
      12753                1.00000    
      12754                1.00000    
      12755                1.00000    
      12756                1.00000    
      12757                1.00000    
      12758                1.00000    
      12759                1.00000    
      12760                1.00000    
      12761                1.00000    
      12762                1.00000    
      12763                1.00000    
      12764                1.00000    
      12765                1.00000    
      12766                1.00000    
      12767                1.00000    
      12768                1.00000    
      12769                1.00000    
      12770                1.00000    
      12771                1.00000    
      12772                1.00000    
      12773                1.00000    
      12774                1.00000    
      12775                1.00000    
      12776                1.00000    
      12777                1.00000    
      12778                1.00000    
      12779                1.00000    
      12780                1.00000    
      12781                1.00000    
      12782                1.00000    
      12783                1.00000    
      12784                1.00000    
      12785                1.00000    
      12786                1.00000    
      12787                1.00000    
      12788                1.00000    
      12789                1.00000    
      12790                1.00000    
      12791                1.00000    
      12792                1.00000    
      12793                1.00000    
      12794                1.00000    
      12795                1.00000    
      12796                1.00000    
      12797                1.00000    
      12798                1.00000    
      12799                1.00000    
      12800                1.00000    
      12801                1.00000    
      12802                1.00000    
      12803                1.00000    
      12804                1.00000    
      12805                1.00000    
      12806                1.00000    
      12807                1.00000    
      12808                1.00000    
      12809                1.00000    
      12810                1.00000    
      12811                1.00000    
      12812                1.00000    
      12813                1.00000    
      12814                1.00000    
      12815                1.00000    
      12816                1.00000    
      12817                1.00000    
      12818                1.00000    
      12819                1.00000    
      12820                1.00000    
      12821                1.00000    
      12822                1.00000    
      12823                1.00000    
      12824                1.00000    
      12825                1.00000    
      12826                1.00000    
      12827                1.00000    
      12828                1.00000    
      12829                1.00000    
      12830                1.00000    
      12831                1.00000    
      12832                1.00000    
      12833                1.00000    
      12834                1.00000    
      12835                1.00000    
      12836                1.00000    
      12837                1.00000    
      12838                1.00000    
      12839                1.00000    
      12840                1.00000    
      12841                1.00000    
      12842                1.00000    
      12843                1.00000    
      12844                1.00000    
      12845                1.00000    
      12846                1.00000    
      12847                1.00000    
      12848                1.00000    
      12849                1.00000    
      12850                1.00000    
      12851                1.00000    
      12852                1.00000    
      12853                1.00000    
      12854                1.00000    
      12855                1.00000    
      12856                1.00000    
      12857                1.00000    
      12858                1.00000    
      12859                1.00000    
      12860                1.00000    
      12861                1.00000    
      12862                1.00000    
      12863                1.00000    
      12864                1.00000    
      12865                1.00000    
      12866                1.00000    
      12867                1.00000    
      12868                1.00000    
      12869                1.00000    
      12870                1.00000    
      12871                1.00000    
      12872                1.00000    
      12873                1.00000    
      12874                1.00000    
      12875                1.00000    
      12876                1.00000    
      12877                1.00000    
      12878                1.00000    
      12879                1.00000    
      12880                1.00000    
      12881                1.00000    
      12882                1.00000    
      12883                1.00000    
      12884                1.00000    
      12885                1.00000    
      12886                1.00000    
      12887                1.00000    
      12888                1.00000    
      12889                1.00000    
      12890                1.00000    
      12891                1.00000    
      12892                1.00000    
      12893                1.00000    
      12894                1.00000    
      12895                1.00000    
      12896                1.00000    
      12897                1.00000    
      12898                1.00000    
      12899                1.00000    
      12900                1.00000    
      12901                1.00000    
      12902                1.00000    
      12903                1.00000    
      12904                1.00000    
      12905                1.00000    
      12906                1.00000    
      12907                1.00000    
      12908                1.00000    
      12909                1.00000    
      12910                1.00000    
      12911                1.00000    
      12912                1.00000    
      12913                1.00000    
      12914                1.00000    
      12915                1.00000    
      12916                1.00000    
      12917                1.00000    
      12918                1.00000    
      12919                1.00000    
      12920                1.00000    
      12921                1.00000    
      12922                1.00000    
      12923                1.00000    
      12924                1.00000    
      12925                1.00000    
      12926                1.00000    
      12927                1.00000    
      12928                1.00000    
      12929                1.00000    
      12930                1.00000    
      12931                1.00000    
      12932                1.00000    
      12933                1.00000    
      12934                1.00000    
      12935                1.00000    
      12936                1.00000    
      12937                1.00000    
      12938                1.00000    
      12939                1.00000    
      12940                1.00000    
      12941                1.00000    
      12942                1.00000    
      12943                1.00000    
      12944                1.00000    
      12945                1.00000    
      12946                1.00000    
      12947                1.00000    
      12948                1.00000    
      12949                1.00000    
      12950                1.00000    
      12951                1.00000    
      12952                1.00000    
      12953                1.00000    


T O T A L   S O L U T I O N   T I M E . . . . . .=     2 Seconds
